* UNL main file generated by charmmgen
* author: Victor Bazterra 2004 CHPC
* 

Read rtf card name theophylline_CHARMM.rtf

Read param card name theophylline_CHARMM.prm

Read sequence card
* Reading the coordinates of residue
* 
    1
UNL
Generate UNL setup
Read coor card free
* Residues coordinate
* 
   21
    1    1 UNL  O     -0.45900   2.71800   0.00000
    2    1 UNL  O1    -2.47000  -1.52500  -0.00000
    3    1 UNL  N     -0.14600  -1.40900   0.00000
    4    1 UNL  N1    -1.49300   0.60400  -0.00000
    5    1 UNL  N2     2.13800   1.24700  -0.00000
    6    1 UNL  N3     2.27700  -0.97800   0.00000
    7    1 UNL  C      0.96800  -0.58000  -0.00000
    8    1 UNL  C1     0.85400   0.78400  -0.00100
    9    1 UNL  C2    -0.38500   1.49300  -0.00100
   10    1 UNL  C3    -1.44200  -0.83700  -0.00000
   11    1 UNL  C4     0.02700  -2.85700   0.00000
   12    1 UNL  C5    -2.82900   1.19000   0.00100
   13    1 UNL  C6     2.95900   0.14900   0.00100
   14    1 UNL  H      2.43200   2.21500   0.00000
   15    1 UNL  H1     0.58500  -3.14800  -0.89500
   16    1 UNL  H2    -0.93500  -3.37500   0.00100
   17    1 UNL  H3     0.58500  -3.14800   0.89500
   18    1 UNL  H4    -2.80400   2.28300   0.00100
   19    1 UNL  H5    -3.36500   0.84100   0.88900
   20    1 UNL  H6    -3.36700   0.84100  -0.88600
   21    1 UNL  H7     4.03600   0.24100   0.00100
Energy ihbfrq 0 inbfrq -1
Open write card unit 14 name tmp.out
Write energy card unit 14
* UNL energy before the optimization
* 
Minimise Abnr Nstep 5000 Tolgrd 0.00001
Write energy card unit 14
* UNL energy after optimization
* 
Write coor card unit 14
* UNL energy after optimization
* 
