* T1 main file generated by charmmgen
* author: Victor Bazterra 2004 CHPC
* 

Read rtf card name thymidine_CHARMM.rtf

Read param card name thymidine_CHARMM.prm

Read sequence card
* Reading the coordinates of residue
* 
    1
 T1
Generate  T1 setup
Read coor card free
* Residues coordinate
* 
   31
    1    1 T1   O4*    1.60200  -0.17600  -0.99500
    2    1 T1   O3*    3.81500   1.61900   0.12500
    3    1 T1   O5*    2.32100  -2.85500  -0.60100
    4    1 T1   O2    -1.16900   2.81700  -0.37900
    5    1 T1   O4    -4.35400  -0.44400   0.22800
    6    1 T1   N1    -0.45000   0.60400  -0.18500
    7    1 T1   N3    -2.74700   1.18100  -0.07500
    8    1 T1   C3*    3.03500   0.59100   0.73100
    9    1 T1   C1*    0.94400   0.90900  -0.32500
   10    1 T1   C2*    1.64200   1.10600   1.01100
   11    1 T1   C4*    2.79300  -0.53300  -0.26700
   12    1 T1   C5*    2.54600  -1.87800   0.40300
   13    1 T1   C6    -0.82300  -0.72200  -0.00800
   14    1 T1   C2    -1.42700   1.62100  -0.22500
   15    1 T1   C5    -2.08700  -1.14000   0.13500
   16    1 T1   C4    -3.17400  -0.12700   0.10300
   17    1 T1   C5M   -2.46700  -2.57400   0.32500
   18    1 T1   H3*    3.56400   0.26200   1.63100
   19    1 T1   H1*    1.06800   1.80100  -0.95100
   20    1 T1   H2*1   1.17400   0.49800   1.79400
   21    1 T1   H2*2   1.60700   2.15200   1.33100
   22    1 T1   H4*    3.60200  -0.61900  -1.00100
   23    1 T1   H5*1   1.69400  -1.86800   1.08700
   24    1 T1   H5*2   3.43200  -2.17800   0.97300
   25    1 T1   H6    -0.04200  -1.46400   0.00700
   26    1 T1   H7     3.89700   2.34100   0.77200
   27    1 T1   H3    -3.46800   1.89600  -0.10100
   28    1 T1   H5*    2.18100  -3.70400  -0.14700
   29    1 T1   H5M1  -2.99200  -2.70700   1.27600
   30    1 T1   H5M2  -1.59200  -3.23200   0.33300
   31    1 T1   H5M3  -3.12400  -2.90500  -0.48500
Energy ihbfrq 0 inbfrq -1
Open write card unit 14 name tmp.out
Write energy card unit 14
* T1 energy before the optimization
* 
Minimise Abnr Nstep 5000 Tolgrd 0.00001
Write energy card unit 14
* T1 energy after optimization
* 
Write coor card unit 14
* T1 energy after optimization
* 
