* UNL main file generated by charmmgen
* author: Victor Bazterra 2004 CHPC
* 

Read rtf card name bisphenol-s_CHARMM.rtf

Read param card name bisphenol-s_CHARMM.prm

Read sequence card
* Reading the coordinates of residue
* 
    1
UNL
Generate UNL setup
Read coor card free
* Residues coordinate
* 
   27
    1    1 UNL  S     -0.00200   1.61600   0.00000
    2    1 UNL  O     -0.02400   2.34700  -1.25900
    3    1 UNL  O1     0.06000   2.34600   1.26000
    4    1 UNL  O2    -4.79000  -1.82600   0.00500
    5    1 UNL  O3     4.78000  -1.83400  -0.00500
    6    1 UNL  C     -1.42000   0.59700   0.00100
    7    1 UNL  C1     1.43500   0.57900  -0.00100
    8    1 UNL  C2    -1.98600   0.19000   1.21000
    9    1 UNL  C3     1.97900   0.18700  -1.20900
   10    1 UNL  C4    -1.98800   0.19000  -1.20700
   11    1 UNL  C5     1.98100   0.18600   1.20700
   12    1 UNL  C6    -3.11800  -0.62500   1.21100
   13    1 UNL  C7     3.11000  -0.62900  -1.21100
   14    1 UNL  C8    -3.12000  -0.62500  -1.20500
   15    1 UNL  C9     3.11200  -0.63000   1.20500
   16    1 UNL  C10   -3.68500  -1.03200   0.00300
   17    1 UNL  C11    3.67600  -1.03800  -0.00300
   18    1 UNL  H     -1.55600   0.49000   2.16100
   19    1 UNL  H1     1.54700   0.48900  -2.15900
   20    1 UNL  H2    -1.56100   0.48700  -2.16000
   21    1 UNL  H3     1.55200   0.48400   2.15800
   22    1 UNL  H4    -3.55300  -0.94000   2.15500
   23    1 UNL  H5     3.53900  -0.94200  -2.15900
   24    1 UNL  H6    -3.55200  -0.93700  -2.15300
   25    1 UNL  H7     3.54800  -0.94700   2.14900
   26    1 UNL  H8    -5.04700  -2.01000  -0.91500
   27    1 UNL  H9     5.03500  -2.01800  -0.92500
Energy ihbfrq 0 inbfrq -1
Open write card unit 14 name tmp.out
Write energy card unit 14
* UNL energy before the optimization
* 
Minimise Abnr Nstep 5000 Tolgrd 0.00001
Write energy card unit 14
* UNL energy after optimization
* 
Write coor card unit 14
* UNL energy after optimization
* 
