* UNL main file generated by charmmgen
* author: Victor Bazterra 2004 CHPC
* 

Read rtf card name bisphenol-a_CHARMM.rtf

Read param card name bisphenol-a_CHARMM.prm

Read sequence card
* Reading the coordinates of residue
* 
    1
UNL
Generate UNL setup
Read coor card free
* Residues coordinate
* 
   33
    1    1 UNL  O      4.70400   1.73400  -0.10800
    2    1 UNL  O1    -4.67300   1.76000   0.10800
    3    1 UNL  C      0.00700  -1.39000  -0.00000
    4    1 UNL  C1     1.24800  -0.56400  -0.02900
    5    1 UNL  C2    -1.29100  -0.51600   0.02900
    6    1 UNL  C3    -0.13900  -2.35900   1.23400
    7    1 UNL  C4     0.02700  -2.36300  -1.23200
    8    1 UNL  C5     1.47000   0.32500  -1.08000
    9    1 UNL  C6    -1.44700   0.33300   1.08000
   10    1 UNL  C7     2.18700  -0.68100   0.99600
   11    1 UNL  C8    -2.17000  -0.66900  -0.99700
   12    1 UNL  C9     2.63200   1.09700  -1.10700
   13    1 UNL  C10   -2.60400   1.11100   1.10600
   14    1 UNL  C11    3.34900   0.09100   0.97000
   15    1 UNL  C12   -3.32600   0.11000  -0.97000
   16    1 UNL  C13    3.57100   0.98100  -0.08200
   17    1 UNL  C14   -3.54400   1.00000   0.08100
   18    1 UNL  H      0.67100  -3.09800   1.25600
   19    1 UNL  H1    -0.13000  -1.82900   2.19300
   20    1 UNL  H2    -1.08300  -2.91700   1.18700
   21    1 UNL  H3     0.93500  -2.98000  -1.20900
   22    1 UNL  H4    -0.82200  -3.05800  -1.22800
   23    1 UNL  H5     0.04200  -1.83600  -2.19300
   24    1 UNL  H6     0.75200   0.43700  -1.88800
   25    1 UNL  H7    -0.72200   0.43400   1.87900
   26    1 UNL  H8     2.06400  -1.35700   1.83500
   27    1 UNL  H9    -2.05600  -1.33700  -1.83900
   28    1 UNL  H10    2.79300   1.78700  -1.93100
   29    1 UNL  H11   -2.76100   1.80200   1.93000
   30    1 UNL  H12    4.07700  -0.00400   1.77000
   31    1 UNL  H13   -4.05500   0.02000  -1.77200
   32    1 UNL  H14    4.69300   2.29200  -0.90500
   33    1 UNL  H15   -4.65900   2.31700   0.90500
Energy ihbfrq 0 inbfrq -1
Open write card unit 14 name tmp.out
Write energy card unit 14
* UNL energy before the optimization
* 
Minimise Abnr Nstep 5000 Tolgrd 0.00001
Write energy card unit 14
* UNL energy after optimization
* 
Write coor card unit 14
* UNL energy after optimization
* 
