* UNL main file generated by charmmgen
* author: Victor Bazterra 2004 CHPC
* 

Read rtf card name atenolol_CHARMM.rtf

Read param card name atenolol_CHARMM.prm

Read sequence card
* Reading the coordinates of residue
* 
    1
UNL
Generate UNL setup
Read coor card free
* Residues coordinate
* 
   41
    1    1 UNL  O     -1.08300  -1.53800  -0.36600
    2    1 UNL  O1    -3.57500  -2.75600  -0.56200
    3    1 UNL  O2     4.97800  -0.85600  -0.52300
    4    1 UNL  N     -3.57700   0.75800   0.60800
    5    1 UNL  N1     6.25200   0.91300   0.20400
    6    1 UNL  C     -3.79600  -0.38500  -0.26900
    7    1 UNL  C1    -3.36000  -1.70000   0.37900
    8    1 UNL  C2    -3.94700   2.00100  -0.05400
    9    1 UNL  C3    -1.89000  -1.71100   0.79500
   10    1 UNL  C4    -3.75200   3.16700   0.91000
   11    1 UNL  C5    -3.12000   2.19300  -1.32200
   12    1 UNL  C6     0.11400  -0.89500  -0.19200
   13    1 UNL  C7     2.54600   0.40900   0.15800
   14    1 UNL  C8     0.65000  -0.14600  -1.23400
   15    1 UNL  C9     0.78200  -0.99800   1.02300
   16    1 UNL  C10    1.87000   0.50800  -1.05800
   17    1 UNL  C11    2.00200  -0.34400   1.19800
   18    1 UNL  C12    3.84900   1.10900   0.34600
   19    1 UNL  C13    5.05700   0.27100  -0.04000
   20    1 UNL  H     -3.24800  -0.30300  -1.21300
   21    1 UNL  H1    -4.85800  -0.45800  -0.54000
   22    1 UNL  H2    -3.98000  -1.91000   1.25900
   23    1 UNL  H3    -5.01000   1.97600  -0.32600
   24    1 UNL  H4    -4.11700   0.64200   1.46400
   25    1 UNL  H5    -1.72900  -0.93000   1.54700
   26    1 UNL  H6    -1.64400  -2.68700   1.23000
   27    1 UNL  H7    -4.36000   3.03900   1.81300
   28    1 UNL  H8    -4.05100   4.11200   0.44200
   29    1 UNL  H9    -2.70400   3.26200   1.21800
   30    1 UNL  H10   -3.22600   3.22000  -1.69200
   31    1 UNL  H11   -2.05200   2.02400  -1.14200
   32    1 UNL  H12   -3.44700   1.54400  -2.14000
   33    1 UNL  H13   -4.52200  -2.76400  -0.78100
   34    1 UNL  H14    0.12700  -0.06600  -2.18200
   35    1 UNL  H15    0.41000  -1.60000   1.84700
   36    1 UNL  H16    2.28400   1.09000  -1.87800
   37    1 UNL  H17    2.52300  -0.43600   2.14800
   38    1 UNL  H18    3.96100   1.41700   1.39400
   39    1 UNL  H19    3.86900   2.03300  -0.24600
   40    1 UNL  H20    7.13800   0.46700  -0.00900
   41    1 UNL  H21    6.29400   1.84600   0.60200
Energy ihbfrq 0 inbfrq -1
Open write card unit 14 name tmp.out
Write energy card unit 14
* UNL energy before the optimization
* 
Minimise Abnr Nstep 5000 Tolgrd 0.00001
Write energy card unit 14
* UNL energy after optimization
* 
Write coor card unit 14
* UNL energy after optimization
* 
