* UNL main file generated by charmmgen
* author: Victor Bazterra 2004 CHPC
* 

Read rtf card name glucose_CHARMM.rtf

Read param card name glucose_CHARMM.prm

Read sequence card
* Reading the coordinates of residue
* 
    1
UNL
Generate UNL setup
Read coor card free
* Residues coordinate
* 
   24
    1    1 UNL  O     -0.66800   1.15900   0.25700
    2    1 UNL  O1    -0.88700  -2.44800  -0.33900
    3    1 UNL  O2     1.86200  -2.06900   0.47000
    4    1 UNL  O3     2.86100   0.54100  -0.46200
    5    1 UNL  O4     1.12200   2.65500   0.25700
    6    1 UNL  O5    -3.37400   0.97200  -0.18600
    7    1 UNL  C     -0.37300  -1.24700   0.23000
    8    1 UNL  C1     1.08600  -1.07100  -0.19400
    9    1 UNL  C2    -1.22100  -0.06200  -0.23700
   10    1 UNL  C3     1.60800   0.31500   0.18400
   11    1 UNL  C4     0.63900   1.41300  -0.25300
   12    1 UNL  C5    -2.65500  -0.15800   0.27400
   13    1 UNL  H     -0.42500  -1.35200   1.32100
   14    1 UNL  H1     1.20700  -1.24900  -1.27000
   15    1 UNL  H2    -1.25500  -0.01000  -1.33400
   16    1 UNL  H3     1.79500   0.36000   1.26400
   17    1 UNL  H4     0.59700   1.51400  -1.34400
   18    1 UNL  H5    -2.69200  -0.15300   1.36900
   19    1 UNL  H6    -3.15600  -1.05800  -0.09200
   20    1 UNL  H7    -0.85100  -2.36100  -1.30700
   21    1 UNL  H8     1.49700  -2.93600   0.22000
   22    1 UNL  H9     2.71600   0.49900  -1.42300
   23    1 UNL  H10    1.48800   2.50300   1.14500
   24    1 UNL  H11   -2.91900   1.76500   0.14400
Energy ihbfrq 0 inbfrq -1
Open write card unit 14 name tmp.out
Write energy card unit 14
* UNL energy before the optimization
* 
Minimise Abnr Nstep 5000 Tolgrd 0.00001
Write energy card unit 14
* UNL energy after optimization
* 
Write coor card unit 14
* UNL energy after optimization
* 
