* UNL main file generated by charmmgen
* author: Victor Bazterra 2004 CHPC
* 

Read rtf card name caffeine_CHARMM.rtf

Read param card name caffeine_CHARMM.prm

Read sequence card
* Reading the coordinates of residue
* 
    1
UNL
Generate UNL setup
Read coor card free
* Residues coordinate
* 
   24
    1    1 UNL  O      0.47000   2.56900   0.00100
    2    1 UNL  O1    -3.12700  -0.44400  -0.00000
    3    1 UNL  N     -0.96900  -1.31200   0.00000
    4    1 UNL  N1     2.21800   0.14100  -0.00000
    5    1 UNL  N2    -1.34800   1.08000  -0.00000
    6    1 UNL  N3     1.41200  -1.93700   0.00000
    7    1 UNL  C      0.85800   0.25900  -0.00100
    8    1 UNL  C1     0.39000  -1.02600  -0.00000
    9    1 UNL  C2     0.03100   1.42200  -0.00100
   10    1 UNL  C3    -1.90600  -0.24900  -0.00000
   11    1 UNL  C4     2.50300  -1.20000   0.00000
   12    1 UNL  C5    -1.42800  -2.69600   0.00100
   13    1 UNL  C6     3.19300   1.20600   0.00000
   14    1 UNL  C7    -2.29700   2.18800   0.00100
   15    1 UNL  H      3.51600  -1.57900   0.00100
   16    1 UNL  H1    -1.04500  -3.19700  -0.89400
   17    1 UNL  H2    -2.51900  -2.76000   0.00100
   18    1 UNL  H3    -1.04500  -3.19600   0.89600
   19    1 UNL  H4     4.19900   0.78000   0.00000
   20    1 UNL  H5     3.04700   1.80900  -0.89900
   21    1 UNL  H6     3.04700   1.80800   0.90000
   22    1 UNL  H7    -1.80900   3.16500  -0.00000
   23    1 UNL  H8    -2.93200   2.10300   0.88800
   24    1 UNL  H9    -2.93500   2.10200  -0.88500
Energy ihbfrq 0 inbfrq -1
Open write card unit 14 name tmp.out
Write energy card unit 14
* UNL energy before the optimization
* 
Minimise Abnr Nstep 5000 Tolgrd 0.00001
Write energy card unit 14
* UNL energy after optimization
* 
Write coor card unit 14
* UNL energy after optimization
* 
