* UNL main file generated by charmmgen
* author: Victor Bazterra 2004 CHPC
* 

Read rtf card name ketoprofen_CHARMM.rtf

Read param card name ketoprofen_CHARMM.prm

Read sequence card
* Reading the coordinates of residue
* 
    1
UNL
Generate UNL setup
Read coor card free
* Residues coordinate
* 
   33
    1    1 UNL  O      4.20500  -2.48000   0.28800
    2    1 UNL  O1    -1.60500   1.74900   1.78800
    3    1 UNL  O2     2.10100  -2.18400  -0.49800
    4    1 UNL  C      3.36800  -0.21600   0.20000
    5    1 UNL  C1     2.19600   0.62200  -0.18600
    6    1 UNL  C2     0.97300   0.45400   0.46300
    7    1 UNL  C3    -0.08700   1.24200   0.08200
    8    1 UNL  C4     2.32400   1.57400  -1.19800
    9    1 UNL  C5     3.80900  -0.03600   1.66700
   10    1 UNL  C6     0.00500   2.18900  -0.91100
   11    1 UNL  C7     1.22800   2.35700  -1.56000
   12    1 UNL  C8    -1.39800   1.06200   0.77700
   13    1 UNL  C9     3.13600  -1.71100  -0.04900
   14    1 UNL  C10   -2.40800   0.12700   0.30700
   15    1 UNL  C11   -2.16900  -0.64300  -0.83200
   16    1 UNL  C12   -3.61500  -0.00000   0.99400
   17    1 UNL  C13   -3.13700  -1.54000  -1.28200
   18    1 UNL  C14   -4.58300  -0.89800   0.54300
   19    1 UNL  C15   -4.34400  -1.66800  -0.59500
   20    1 UNL  H      4.22000   0.05600  -0.43700
   21    1 UNL  H1     0.85800  -0.28200   1.25400
   22    1 UNL  H2     3.26900   1.71800  -1.71400
   23    1 UNL  H3     3.94700   1.02500   1.90200
   24    1 UNL  H4     3.07000  -0.44400   2.36500
   25    1 UNL  H5     4.75900  -0.54500   1.86200
   26    1 UNL  H6    -0.84500   2.80100  -1.19600
   27    1 UNL  H7     1.32700   3.09900  -2.34800
   28    1 UNL  H8    -1.24400  -0.57700  -1.39600
   29    1 UNL  H9    -3.82600   0.58800   1.88400
   30    1 UNL  H10   -2.95100  -2.14000  -2.16900
   31    1 UNL  H11   -5.52300  -0.99700   1.07900
   32    1 UNL  H12   -5.09800  -2.36600  -0.94600
   33    1 UNL  H13    4.03600  -3.43200   0.12600
Energy ihbfrq 0 inbfrq -1
Open write card unit 14 name tmp.out
Write energy card unit 14
* UNL energy before the optimization
* 
Minimise Abnr Nstep 5000 Tolgrd 0.00001
Write energy card unit 14
* UNL energy after optimization
* 
Write coor card unit 14
* UNL energy after optimization
* 
