* UNL main file generated by charmmgen
* author: Victor Bazterra 2004 CHPC
* 

Read rtf card name campesterol_CHARMM.rtf

Read param card name campesterol_CHARMM.prm

Read sequence card
* Reading the coordinates of residue
* 
    1
UNL
Generate UNL setup
Read coor card free
* Residues coordinate
* 
   77
    1    1 UNL  O      7.95900   0.28800   1.31900
    2    1 UNL  C     -0.50300   0.22900  -0.87900
    3    1 UNL  C1     0.24600  -1.00100  -0.32800
    4    1 UNL  C2     1.76200  -0.93400  -0.54300
    5    1 UNL  C3     2.32600   0.35000   0.13200
    6    1 UNL  C4    -1.95500  -0.19900  -0.55500
    7    1 UNL  C5    -0.00500   1.45700  -0.10500
    8    1 UNL  C6     3.88500   0.48600  -0.09600
    9    1 UNL  C7    -0.52600  -2.18400  -0.90300
   10    1 UNL  C8     1.51800   1.62600  -0.23400
   11    1 UNL  C9    -1.98800  -1.69900  -0.93300
   12    1 UNL  C10    2.44800  -2.18000   0.03500
   13    1 UNL  C11   -3.06500   0.60400  -1.21700
   14    1 UNL  C12   -0.31300   0.45200  -2.40100
   15    1 UNL  C13    4.58900  -0.86000   0.13000
   16    1 UNL  C14    4.43800   1.52700   0.92300
   17    1 UNL  C15    3.92700  -2.02800   0.19800
   18    1 UNL  C16    4.20500   0.95700  -1.53500
   19    1 UNL  C17    6.09200  -0.83500   0.28700
   20    1 UNL  C18    5.96300   1.57100   1.01400
   21    1 UNL  C19   -4.44300   0.02600  -0.82800
   22    1 UNL  C20    6.53800   0.19400   1.32200
   23    1 UNL  C21   -2.93800   2.08400  -0.84500
   24    1 UNL  C22   -4.68700  -0.01500   0.68500
   25    1 UNL  C23   -6.07300  -0.57900   1.08000
   26    1 UNL  C24   -7.26500   0.10900   0.35600
   27    1 UNL  C25   -6.19600  -0.55200   2.61100
   28    1 UNL  C26   -8.61000  -0.51800   0.74300
   29    1 UNL  C27   -7.32800   1.62500   0.56600
   30    1 UNL  H      0.08800  -1.03800   0.76300
   31    1 UNL  H1     1.97500  -0.90700  -1.61700
   32    1 UNL  H2     2.17200   0.21100   1.21400
   33    1 UNL  H3    -2.05600  -0.12900   0.53600
   34    1 UNL  H4    -0.25900   1.36600   0.95900
   35    1 UNL  H5    -0.44900   2.38900  -0.45400
   36    1 UNL  H6    -0.41800  -3.08200  -0.28700
   37    1 UNL  H7    -0.18600  -2.43300  -1.91400
   38    1 UNL  H8     1.74200   1.94200  -1.25800
   39    1 UNL  H9     1.82300   2.45400   0.41500
   40    1 UNL  H10   -2.40500  -1.86700  -1.93200
   41    1 UNL  H11   -2.59700  -2.26600  -0.22100
   42    1 UNL  H12    2.25400  -3.03400  -0.62500
   43    1 UNL  H13    2.02600  -2.43500   1.01500
   44    1 UNL  H14   -2.99800   0.52600  -2.31000
   45    1 UNL  H15   -0.79500   1.37600  -2.73400
   46    1 UNL  H16    0.73900   0.53700  -2.68400
   47    1 UNL  H17   -0.73200  -0.36400  -2.99700
   48    1 UNL  H18    4.04800   1.30300   1.92500
   49    1 UNL  H19    4.08100   2.53300   0.67200
   50    1 UNL  H20    4.47800  -2.94700   0.38200
   51    1 UNL  H21    3.74000   0.31100  -2.28700
   52    1 UNL  H22    3.86100   1.98000  -1.71200
   53    1 UNL  H23    5.28000   0.95900  -1.74300
   54    1 UNL  H24    6.48400  -1.81900   0.57500
   55    1 UNL  H25    6.56000  -0.61900  -0.68200
   56    1 UNL  H26    6.39400   1.96300   0.08400
   57    1 UNL  H27    6.26700   2.27900   1.79500
   58    1 UNL  H28   -5.20200   0.64400  -1.32000
   59    1 UNL  H29   -4.56300  -0.98200  -1.24200
   60    1 UNL  H30    6.22500  -0.11900   2.32600
   61    1 UNL  H31   -3.88600   2.60200  -1.03400
   62    1 UNL  H32   -2.20500   2.59800  -1.47000
   63    1 UNL  H33   -2.69900   2.23500   0.21200
   64    1 UNL  H34   -3.94100  -0.65300   1.17100
   65    1 UNL  H35   -4.56500   0.98700   1.11200
   66    1 UNL  H36   -6.08400  -1.63700   0.78000
   67    1 UNL  H37    8.31100  -0.59600   1.52100
   68    1 UNL  H38   -7.15500  -0.07000  -0.72000
   69    1 UNL  H39   -7.10100  -1.06200   2.95200
   70    1 UNL  H40   -6.21000   0.47200   2.99800
   71    1 UNL  H41   -5.34700  -1.06800   3.07400
   72    1 UNL  H42   -8.57900  -1.60700   0.63500
   73    1 UNL  H43   -9.40700  -0.14400   0.09100
   74    1 UNL  H44   -8.89200  -0.27900   1.77300
   75    1 UNL  H45   -8.16400   2.05400   0.00200
   76    1 UNL  H46   -7.47700   1.88100   1.62000
   77    1 UNL  H47   -6.41800   2.12200   0.22000
Energy ihbfrq 0 inbfrq -1
Open write card unit 14 name tmp.out
Write energy card unit 14
* UNL energy before the optimization
* 
Minimise Abnr Nstep 5000 Tolgrd 0.00001
Write energy card unit 14
* UNL energy after optimization
* 
Write coor card unit 14
* UNL energy after optimization
* 
