* UNL main file generated by charmmgen
* author: Victor Bazterra 2004 CHPC
* 

Read rtf card name adenine_CHARMM.rtf

Read param card name adenine_CHARMM.prm

Read sequence card
* Reading the coordinates of residue
* 
    1
UNL
Generate UNL setup
Read coor card free
* Residues coordinate
* 
   15
    1    1 UNL  N     -1.19900  -1.40000   0.00000
    2    1 UNL  N1    -2.07500   0.65000   0.00000
    3    1 UNL  N2     0.03400   1.85900  -0.00000
    4    1 UNL  N3     2.00000   0.41500   0.00000
    5    1 UNL  N4     1.82400  -1.97600   0.00000
    6    1 UNL  C     -0.13600  -0.54200   0.00000
    7    1 UNL  C1    -0.70600   0.72400   0.00000
    8    1 UNL  C2     1.23600  -0.70000   0.00000
    9    1 UNL  C3    -2.33900  -0.63900   0.00000
   10    1 UNL  C4     1.36100   1.60900   0.00000
   11    1 UNL  H     -1.15700  -2.41000  -0.00000
   12    1 UNL  H1    -3.32200  -1.08600  -0.00000
   13    1 UNL  H2     2.00300   2.48300  -0.00000
   14    1 UNL  H3     2.83200  -2.05300   0.00000
   15    1 UNL  H4     1.25000  -2.80800   0.00000
Energy ihbfrq 0 inbfrq -1
Open write card unit 14 name tmp.out
Write energy card unit 14
* UNL energy before the optimization
* 
Minimise Abnr Nstep 5000 Tolgrd 0.00001
Write energy card unit 14
* UNL energy after optimization
* 
Write coor card unit 14
* UNL energy after optimization
* 
