* UNL main file generated by charmmgen
* author: Victor Bazterra 2004 CHPC
* 

Read rtf card name cholesterol_CHARMM.rtf

Read param card name cholesterol_CHARMM.prm

Read sequence card
* Reading the coordinates of residue
* 
    1
UNL
Generate UNL setup
Read coor card free
* Residues coordinate
* 
   74
    1    1 UNL  O      7.50000   1.58300  -0.32000
    2    1 UNL  C     -0.81800  -1.10800  -0.20300
    3    1 UNL  C1    -0.11900  -0.43700   0.99600
    4    1 UNL  C2     1.40700  -0.56500   0.95800
    5    1 UNL  C3     1.94800   0.06000  -0.36100
    6    1 UNL  C4    -2.29200  -0.84400   0.18900
    7    1 UNL  C5    -0.35100  -0.38400  -1.47300
    8    1 UNL  C6     3.51900  -0.08200  -0.46700
    9    1 UNL  C7    -0.87200  -0.98200   2.20600
   10    1 UNL  C8     1.18000  -0.43300  -1.61900
   11    1 UNL  C9    -2.32300  -1.12900   1.70900
   12    1 UNL  C10    2.04200   0.13000   2.17100
   13    1 UNL  C11   -3.35100  -1.62100  -0.58100
   14    1 UNL  C12   -0.53600  -2.62600  -0.32800
   15    1 UNL  C13    4.19000   0.26900   0.86900
   16    1 UNL  C14    4.02500   0.90000  -1.56500
   17    1 UNL  C15    3.51000   0.37100   2.02400
   18    1 UNL  C16    3.93000  -1.52600  -0.84300
   19    1 UNL  C17    5.68200   0.51300   0.84800
   20    1 UNL  C18    5.54200   1.07900  -1.60100
   21    1 UNL  C19   -4.78700  -1.27600  -0.13400
   22    1 UNL  C20    6.08000   1.50700  -0.24000
   23    1 UNL  C21   -3.21100  -1.35100  -2.08400
   24    1 UNL  C22   -5.18600   0.20300  -0.23400
   25    1 UNL  C23   -6.59500   0.49200   0.29300
   26    1 UNL  C24   -7.02100   1.96400   0.12700
   27    1 UNL  C25   -6.96100   2.43200  -1.32800
   28    1 UNL  C26   -6.13200   2.86100   0.99200
   29    1 UNL  H     -0.34200   0.64300   0.96200
   30    1 UNL  H1     1.68300  -1.62500   1.00100
   31    1 UNL  H2     1.72900   1.13800  -0.29200
   32    1 UNL  H3    -2.46800   0.23200   0.05400
   33    1 UNL  H4    -0.66800   0.66700  -1.45200
   34    1 UNL  H5    -0.75900  -0.81500  -2.38700
   35    1 UNL  H6    -0.81300  -0.30600   3.06500
   36    1 UNL  H7    -0.47600  -1.95400   2.52100
   37    1 UNL  H8     1.46800  -1.45800  -1.86700
   38    1 UNL  H9     1.45800   0.18100  -2.48300
   39    1 UNL  H10   -2.68700  -2.13800   1.93500
   40    1 UNL  H11   -2.98300  -0.42000   2.22000
   41    1 UNL  H12    1.87500  -0.48600   3.06400
   42    1 UNL  H13    1.56000   1.09700   2.36000
   43    1 UNL  H14   -3.22800  -2.69900  -0.41800
   44    1 UNL  H15   -0.98400  -3.04700  -1.23300
   45    1 UNL  H16    0.53200  -2.85100  -0.38300
   46    1 UNL  H17   -0.93000  -3.19400   0.52000
   47    1 UNL  H18    3.57400   1.89000  -1.40900
   48    1 UNL  H19    3.69700   0.56600  -2.55700
   49    1 UNL  H20    4.03700   0.64400   2.93400
   50    1 UNL  H21    3.61000  -1.78700  -1.85700
   51    1 UNL  H22    5.01500  -1.66900  -0.82200
   52    1 UNL  H23    3.50100  -2.26300  -0.15500
   53    1 UNL  H24    6.04300   0.88500   1.81600
   54    1 UNL  H25    6.20900  -0.43700   0.69800
   55    1 UNL  H26    6.03300   0.15400  -1.92900
   56    1 UNL  H27    5.80900   1.83100  -2.35300
   57    1 UNL  H28   -5.49700  -1.87300  -0.72200
   58    1 UNL  H29   -4.92200  -1.60300   0.90400
   59    1 UNL  H30    5.70500   2.50800   0.00500
   60    1 UNL  H31   -3.03700  -0.29400  -2.30700
   61    1 UNL  H32   -4.12800  -1.64100  -2.61100
   62    1 UNL  H33   -2.42700  -1.96200  -2.53400
   63    1 UNL  H34   -4.47500   0.80600   0.33600
   64    1 UNL  H35   -5.10700   0.50800  -1.28200
   65    1 UNL  H36    7.82800   1.86000   0.55200
   66    1 UNL  H37   -6.65700   0.20800   1.35100
   67    1 UNL  H38   -7.31200  -0.14200  -0.24300
   68    1 UNL  H39   -8.05600   2.05500   0.48000
   69    1 UNL  H40   -7.51000   1.74600  -1.98200
   70    1 UNL  H41   -7.42100   3.42200  -1.42500
   71    1 UNL  H42   -5.93500   2.51700  -1.69900
   72    1 UNL  H43   -6.10700   2.50900   2.02900
   73    1 UNL  H44   -6.52600   3.88400   1.00100
   74    1 UNL  H45   -5.10400   2.91600   0.62100
Energy ihbfrq 0 inbfrq -1
Open write card unit 14 name tmp.out
Write energy card unit 14
* UNL energy before the optimization
* 
Minimise Abnr Nstep 5000 Tolgrd 0.00001
Write energy card unit 14
* UNL energy after optimization
* 
Write coor card unit 14
* UNL energy after optimization
* 
