* UNL main file generated by charmmgen
* author: Victor Bazterra 2004 CHPC
* 

Read rtf card name testosterone_CHARMM.rtf

Read param card name testosterone_CHARMM.prm

Read sequence card
* Reading the coordinates of residue
* 
    1
UNL
Generate UNL setup
Read coor card free
* Residues coordinate
* 
   49
    1    1 UNL  O     -5.16900   1.06400   0.36100
    2    1 UNL  O1     5.59300  -0.14300   0.96700
    3    1 UNL  C     -1.99900  -0.73600   0.35600
    4    1 UNL  C1    -2.78100   0.55000   0.02700
    5    1 UNL  C2    -0.62100  -0.77700  -0.31300
    6    1 UNL  C3     0.21400   0.44600   0.18200
    7    1 UNL  C4     1.67300   0.47200  -0.41700
    8    1 UNL  C5    -1.99000   1.74200   0.58100
    9    1 UNL  C6    -0.56000   1.78300   0.01400
   10    1 UNL  C7    -4.09300   0.24400   0.77400
   11    1 UNL  C8    -3.00200  -1.84800   0.06300
   12    1 UNL  C9     0.11700  -2.08300   0.00700
   13    1 UNL  C10   -4.35900  -1.24400   0.46800
   14    1 UNL  C11    2.32700  -0.90400  -0.23700
   15    1 UNL  C12    1.49900  -2.10500  -0.63200
   16    1 UNL  C13   -3.05900   0.76900  -1.48200
   17    1 UNL  C14    2.49400   1.55400   0.34300
   18    1 UNL  C15    1.67300   0.81200  -1.92500
   19    1 UNL  C16    3.99600   1.43700   0.13700
   20    1 UNL  C17    3.57600  -1.08900   0.22100
   21    1 UNL  C18    4.47000   0.05700   0.50700
   22    1 UNL  H     -1.82300  -0.76600   1.44500
   23    1 UNL  H1    -0.74700  -0.72500  -1.39900
   24    1 UNL  H2     0.32900   0.30900   1.27000
   25    1 UNL  H3    -1.92900   1.67700   1.67500
   26    1 UNL  H4    -2.50300   2.68500   0.35600
   27    1 UNL  H5    -0.60400   2.06600  -1.04200
   28    1 UNL  H6    -0.02500   2.59100   0.52600
   29    1 UNL  H7    -3.96600   0.37800   1.85500
   30    1 UNL  H8    -2.78600  -2.75700   0.63300
   31    1 UNL  H9    -3.00600  -2.11500  -1.00000
   32    1 UNL  H10   -0.45600  -2.94100  -0.36500
   33    1 UNL  H11    0.21000  -2.21000   1.09300
   34    1 UNL  H12   -5.09900  -1.38500  -0.32700
   35    1 UNL  H13   -4.75400  -1.74200   1.36000
   36    1 UNL  H14    1.39800  -2.12300  -1.72500
   37    1 UNL  H15    1.99800  -3.04200  -0.35600
   38    1 UNL  H16   -3.66800  -0.02900  -1.91700
   39    1 UNL  H17   -3.59500   1.71100  -1.64400
   40    1 UNL  H18   -2.14300   0.82400  -2.07600
   41    1 UNL  H19    2.29300   1.47500   1.42100
   42    1 UNL  H20    2.18100   2.56100   0.04300
   43    1 UNL  H21    0.99800   0.16700  -2.49600
   44    1 UNL  H22    1.36800   1.84800  -2.10500
   45    1 UNL  H23    2.67100   0.69300  -2.36500
   46    1 UNL  H24    4.50500   2.16300   0.78100
   47    1 UNL  H25    4.28300   1.64200  -0.89900
   48    1 UNL  H26    4.00000  -2.07900   0.34700
   49    1 UNL  H27   -5.44800   0.79300  -0.52900
Energy ihbfrq 0 inbfrq -1
Open write card unit 14 name tmp.out
Write energy card unit 14
* UNL energy before the optimization
* 
Minimise Abnr Nstep 5000 Tolgrd 0.00001
Write energy card unit 14
* UNL energy after optimization
* 
Write coor card unit 14
* UNL energy after optimization
* 
