* UNL main file generated by charmmgen
* author: Victor Bazterra 2004 CHPC
* 

Read rtf card name nonylphenol_CHARMM.rtf

Read param card name nonylphenol_CHARMM.prm

Read sequence card
* Reading the coordinates of residue
* 
    1
UNL
Generate UNL setup
Read coor card free
* Residues coordinate
* 
   40
    1    1 UNL  O      3.24800  -2.20100  -0.03700
    2    1 UNL  C     -1.95600   0.03400   0.18900
    3    1 UNL  C1    -3.31700  -0.06000  -0.50600
    4    1 UNL  C2    -0.77200  -0.05400  -0.78000
    5    1 UNL  C3    -4.46300   0.05700   0.50300
    6    1 UNL  C4     0.58700   0.11400  -0.09200
    7    1 UNL  C5    -5.82300   0.00300  -0.19700
    8    1 UNL  C6     1.76600   0.01300  -1.06800
    9    1 UNL  C7    -7.00600   0.08400   0.77000
   10    1 UNL  C8     3.11400   0.16300  -0.41000
   11    1 UNL  C9    -8.35900   0.10200   0.07500
   12    1 UNL  C10    3.78300  -0.95300   0.07100
   13    1 UNL  C11    3.66500   1.43200  -0.29900
   14    1 UNL  C12    5.03000  -0.79600   0.67800
   15    1 UNL  C13    4.91100   1.58800   0.30700
   16    1 UNL  C14    5.59300   0.47400   0.79600
   17    1 UNL  H     -1.89700   0.98200   0.73800
   18    1 UNL  H1    -1.87100  -0.76800   0.93300
   19    1 UNL  H2    -3.39000  -1.01300  -1.04200
   20    1 UNL  H3    -3.40000   0.73900  -1.25200
   21    1 UNL  H4    -0.88000   0.71900  -1.55000
   22    1 UNL  H5    -0.80100  -1.02200  -1.29500
   23    1 UNL  H6    -4.39400  -0.75700   1.23500
   24    1 UNL  H7    -4.37600   1.00000   1.05600
   25    1 UNL  H8     0.61600   1.08400   0.41900
   26    1 UNL  H9     0.69200  -0.65100   0.68800
   27    1 UNL  H10   -5.89900  -0.92700  -0.77500
   28    1 UNL  H11   -5.89000   0.82800  -0.91600
   29    1 UNL  H12    1.65800   0.78300  -1.84500
   30    1 UNL  H13    1.71900  -0.94000  -1.61000
   31    1 UNL  H14   -6.91300   0.99000   1.38100
   32    1 UNL  H15   -6.97100  -0.76800   1.45900
   33    1 UNL  H16   -9.16500   0.16000   0.81200
   34    1 UNL  H17   -8.50400  -0.80500  -0.51900
   35    1 UNL  H18   -8.44400   0.96700  -0.59200
   36    1 UNL  H19    3.14100   2.30700  -0.67300
   37    1 UNL  H20    5.57300  -1.65500   1.06200
   38    1 UNL  H21    5.35000   2.57800   0.40000
   39    1 UNL  H22    6.56400   0.59600   1.26800
   40    1 UNL  H23    3.86100  -2.84500   0.35600
Energy ihbfrq 0 inbfrq -1
Open write card unit 14 name tmp.out
Write energy card unit 14
* UNL energy before the optimization
* 
Minimise Abnr Nstep 5000 Tolgrd 0.00001
Write energy card unit 14
* UNL energy after optimization
* 
Write coor card unit 14
* UNL energy after optimization
* 
