* UNL main file generated by charmmgen
* author: Victor Bazterra 2004 CHPC
* 

Read rtf card name uracil_CHARMM.rtf

Read param card name uracil_CHARMM.prm

Read sequence card
* Reading the coordinates of residue
* 
    1
UNL
Generate UNL setup
Read coor card free
* Residues coordinate
* 
   12
    1    1 UNL  O      2.32600   0.96500   0.00000
    2    1 UNL  O1    -2.29700   1.02300   0.00100
    3    1 UNL  N      0.01800   1.02000  -0.00000
    4    1 UNL  N1     1.16400  -1.02200   0.00000
    5    1 UNL  C      1.25200   0.36300   0.00000
    6    1 UNL  C1    -1.23200   0.41400  -0.00000
    7    1 UNL  C2    -0.02700  -1.69600   0.00000
    8    1 UNL  C3    -1.20500  -1.06800  -0.00000
    9    1 UNL  H      0.03800   2.03600  -0.00000
   10    1 UNL  H1     2.01900  -1.57000   0.00000
   11    1 UNL  H2    -2.14400  -1.60600  -0.00000
   12    1 UNL  H3     0.04700  -2.77600   0.00000
Energy ihbfrq 0 inbfrq -1
Open write card unit 14 name tmp.out
Write energy card unit 14
* UNL energy before the optimization
* 
Minimise Abnr Nstep 5000 Tolgrd 0.00001
Write energy card unit 14
* UNL energy after optimization
* 
Write coor card unit 14
* UNL energy after optimization
* 
