* UNL main file generated by charmmgen
* author: Victor Bazterra 2004 CHPC
* 

Read rtf card name desmosterol_CHARMM.rtf

Read param card name desmosterol_CHARMM.prm

Read sequence card
* Reading the coordinates of residue
* 
    1
UNL
Generate UNL setup
Read coor card free
* Residues coordinate
* 
   72
    1    1 UNL  O      7.67200  -0.57900   1.19000
    2    1 UNL  C     -0.76900   0.75800  -0.65300
    3    1 UNL  C1    -0.12700  -0.63900  -0.55400
    4    1 UNL  C2     1.38900  -0.62700  -0.78100
    5    1 UNL  C3     2.06200   0.31700   0.25700
    6    1 UNL  C4    -2.25200   0.36500  -0.44200
    7    1 UNL  C5    -0.16700   1.62300   0.46300
    8    1 UNL  C6     3.62600   0.39400   0.03900
    9    1 UNL  C7    -0.99900  -1.50500  -1.45900
   10    1 UNL  C8     1.36500   1.70300   0.34900
   11    1 UNL  C9    -2.41300  -0.92100  -1.28500
   12    1 UNL  C10    1.96800  -2.04500  -0.66000
   13    1 UNL  C11   -3.29100   1.42600  -0.77400
   14    1 UNL  C12   -0.56500   1.45000  -2.02400
   15    1 UNL  C13    4.21300  -1.00300  -0.20600
   16    1 UNL  C14    4.26900   0.99900   1.32300
   17    1 UNL  C15    3.45400  -2.07300  -0.50100
   18    1 UNL  C16    3.98200   1.28200  -1.17800
   19    1 UNL  C17    5.71300  -1.15100  -0.09500
   20    1 UNL  C18    5.79200   0.88900   1.37800
   21    1 UNL  C19   -4.73500   0.94600  -0.51000
   22    1 UNL  C20    6.24800  -0.55500   1.20400
   23    1 UNL  C21   -3.02200   2.69500   0.04500
   24    1 UNL  C22   -5.05100   0.59100   0.95000
   25    1 UNL  C23   -6.48500   0.18600   1.15200
   26    1 UNL  C24   -7.04300  -1.02800   0.98400
   27    1 UNL  C25   -8.51200  -1.23000   1.24800
   28    1 UNL  C26   -6.32200  -2.26800   0.53900
   29    1 UNL  H     -0.28500  -1.01700   0.47000
   30    1 UNL  H1     1.60000  -0.26900  -1.79500
   31    1 UNL  H2     1.89900  -0.15500   1.24000
   32    1 UNL  H3    -2.36300   0.07800   0.61300
   33    1 UNL  H4    -0.42500   1.21000   1.44700
   34    1 UNL  H5    -0.52800   2.65100   0.45000
   35    1 UNL  H6    -0.96600  -2.56100  -1.17100
   36    1 UNL  H7    -0.68300  -1.43600  -2.50600
   37    1 UNL  H8     1.61300   2.31600  -0.52200
   38    1 UNL  H9     1.74100   2.24700   1.22300
   39    1 UNL  H10   -2.85100  -0.72100  -2.27000
   40    1 UNL  H11   -3.06700  -1.63700  -0.77400
   41    1 UNL  H12    1.70000  -2.61800  -1.55600
   42    1 UNL  H13    1.52800  -2.57100   0.19600
   43    1 UNL  H14   -3.24200   1.68900  -1.83800
   44    1 UNL  H15   -0.96600   2.46700  -2.02700
   45    1 UNL  H16    0.49000   1.53700  -2.29700
   46    1 UNL  H17   -1.05300   0.90800  -2.84100
   47    1 UNL  H18    3.86400   0.49200   2.21000
   48    1 UNL  H19    3.99800   2.05700   1.42400
   49    1 UNL  H20    3.92600  -3.04200  -0.64300
   50    1 UNL  H21    3.72500   2.33100  -1.00200
   51    1 UNL  H22    5.05300   1.26600  -1.40600
   52    1 UNL  H23    3.46200   0.95600  -2.08500
   53    1 UNL  H24    6.02100  -2.20300  -0.15400
   54    1 UNL  H25    6.19600  -0.66800  -0.95400
   55    1 UNL  H26    6.25300   1.52700   0.61400
   56    1 UNL  H27    6.15700   1.27600   2.33700
   57    1 UNL  H28   -4.95300   0.08200  -1.15100
   58    1 UNL  H29   -5.42800   1.73300  -0.83800
   59    1 UNL  H30    5.91200  -1.15200   2.06100
   60    1 UNL  H31   -2.76300   2.47900   1.08600
   61    1 UNL  H32   -2.24600   3.31200  -0.41100
   62    1 UNL  H33   -3.91300   3.33400   0.06200
   63    1 UNL  H34   -4.85200   1.44500   1.60600
   64    1 UNL  H35   -4.40100  -0.21600   1.30300
   65    1 UNL  H36    7.94800  -1.50500   1.08300
   66    1 UNL  H37   -7.13200   1.00500   1.46600
   67    1 UNL  H38   -9.01000  -0.31000   1.57300
   68    1 UNL  H39   -9.01600  -1.57700   0.34000
   69    1 UNL  H40   -8.65600  -1.97900   2.03300
   70    1 UNL  H41   -6.76700  -2.65400  -0.38300
   71    1 UNL  H42   -5.26100  -2.09300   0.34200
   72    1 UNL  H43   -6.39100  -3.04300   1.30900
Energy ihbfrq 0 inbfrq -1
Open write card unit 14 name tmp.out
Write energy card unit 14
* UNL energy before the optimization
* 
Minimise Abnr Nstep 5000 Tolgrd 0.00001
Write energy card unit 14
* UNL energy after optimization
* 
Write coor card unit 14
* UNL energy after optimization
* 
