* UNL main file generated by charmmgen
* author: Victor Bazterra 2004 CHPC
* 

Read rtf card name mannose_CHARMM.rtf

Read param card name mannose_CHARMM.prm

Read sequence card
* Reading the coordinates of residue
* 
    1
UNL
Generate UNL setup
Read coor card free
* Residues coordinate
* 
   24
    1    1 UNL  O     -0.67200   1.12700   0.08200
    2    1 UNL  O1    -0.59800  -2.52400  -0.31800
    3    1 UNL  O2     2.18900  -1.86500   0.06300
    4    1 UNL  O3     1.86000   0.64200   1.24200
    5    1 UNL  O4     0.95400   2.77900  -0.28800
    6    1 UNL  O5    -3.37100   0.66300   0.06900
    7    1 UNL  C     -0.14100  -1.25700   0.14900
    8    1 UNL  C1     1.22800  -0.95400  -0.46300
    9    1 UNL  C2    -1.15800  -0.17800  -0.24800
   10    1 UNL  C3     1.65100   0.48500  -0.16500
   11    1 UNL  C4     0.54500   1.44900  -0.59500
   12    1 UNL  C5    -2.48900  -0.36800   0.47200
   13    1 UNL  H     -0.05400  -1.33000   1.24000
   14    1 UNL  H1     1.20000  -1.11100  -1.54800
   15    1 UNL  H2    -1.35300  -0.20500  -1.32900
   16    1 UNL  H3     2.60400   0.72300  -0.64800
   17    1 UNL  H4     0.37700   1.40300  -1.67600
   18    1 UNL  H5    -2.36900  -0.29900   1.55900
   19    1 UNL  H6    -2.94700  -1.33100   0.22900
   20    1 UNL  H7    -0.68100  -2.47500  -1.28500
   21    1 UNL  H8     1.87300  -2.76400  -0.12900
   22    1 UNL  H9     0.99500   0.61800   1.68500
   23    1 UNL  H10    1.46100   2.75600   0.54100
   24    1 UNL  H11   -2.95300   1.51200   0.29000
Energy ihbfrq 0 inbfrq -1
Open write card unit 14 name tmp.out
Write energy card unit 14
* UNL energy before the optimization
* 
Minimise Abnr Nstep 5000 Tolgrd 0.00001
Write energy card unit 14
* UNL energy after optimization
* 
Write coor card unit 14
* UNL energy after optimization
* 
