* UNL main file generated by charmmgen
* author: Victor Bazterra 2004 CHPC
* 

Read rtf card name benzocaine_CHARMM.rtf

Read param card name benzocaine_CHARMM.prm

Read sequence card
* Reading the coordinates of residue
* 
    1
UNL
Generate UNL setup
Read coor card free
* Residues coordinate
* 
   23
    1    1 UNL  O     -2.11300  -0.35700   0.00100
    2    1 UNL  O1    -1.70600   1.90900   0.00000
    3    1 UNL  N      4.16300  -0.73200  -0.00100
    4    1 UNL  C      0.10800   0.36200   0.00100
    5    1 UNL  C1     1.09600   1.34700  -0.00000
    6    1 UNL  C2     0.46700  -0.98600   0.00100
    7    1 UNL  C3     2.80200  -0.36500  -0.00000
    8    1 UNL  C4     2.44300   0.98300  -0.00100
    9    1 UNL  C5     1.81400  -1.34900   0.00100
   10    1 UNL  C6    -1.29600   0.74100   0.00100
   11    1 UNL  C7    -3.52400  -0.11300  -0.00100
   12    1 UNL  C8    -4.25300  -1.44000  -0.00100
   13    1 UNL  H      0.83800   2.40200  -0.00100
   14    1 UNL  H1    -0.26800  -1.78700   0.00200
   15    1 UNL  H2     3.20300   1.76000  -0.00200
   16    1 UNL  H3     2.08100  -2.40300   0.00100
   17    1 UNL  H4    -3.79500   0.46000   0.89300
   18    1 UNL  H5    -3.79300   0.45900  -0.89500
   19    1 UNL  H6    -5.33700  -1.29000  -0.00200
   20    1 UNL  H7    -3.97700  -2.03100  -0.88000
   21    1 UNL  H8    -3.97800  -2.03000   0.87900
   22    1 UNL  H9     4.42400  -1.70900   0.00000
   23    1 UNL  H10    4.88000  -0.01800  -0.00100
Energy ihbfrq 0 inbfrq -1
Open write card unit 14 name tmp.out
Write energy card unit 14
* UNL energy before the optimization
* 
Minimise Abnr Nstep 5000 Tolgrd 0.00001
Write energy card unit 14
* UNL energy after optimization
* 
Write coor card unit 14
* UNL energy after optimization
* 
