* UNL main file generated by charmmgen
* author: Victor Bazterra 2004 CHPC
* 

Read rtf card name ciprofloxacin_CHARMM.rtf

Read param card name ciprofloxacin_CHARMM.prm

Read sequence card
* Reading the coordinates of residue
* 
    1
UNL
Generate UNL setup
Read coor card free
* Residues coordinate
* 
   42
    1    1 UNL  F     -2.21600   2.78300   0.36100
    2    1 UNL  O      2.80900   2.52400   0.23300
    3    1 UNL  O1     5.16200   1.46000   0.68100
    4    1 UNL  O2     5.59800  -0.29000  -0.72600
    5    1 UNL  N      1.52800  -1.31100  -0.29100
    6    1 UNL  N1    -3.12700   0.18800   0.01100
    7    1 UNL  N2    -5.88100  -0.51800  -0.24600
    8    1 UNL  C      1.14600  -2.72700  -0.48600
    9    1 UNL  C1     1.69200  -3.79500   0.40100
   10    1 UNL  C2     0.24200  -3.41600   0.48100
   11    1 UNL  C3     0.55100  -0.28900  -0.12600
   12    1 UNL  C4     2.87000  -0.98200  -0.26900
   13    1 UNL  C5     0.96600   1.04800   0.05700
   14    1 UNL  C6    -0.82900  -0.55200  -0.13800
   15    1 UNL  C7    -1.75900   0.47900   0.02600
   16    1 UNL  C8    -3.95900   0.82900  -1.01600
   17    1 UNL  C9    -3.59900  -1.11700   0.48800
   18    1 UNL  C10    3.36900   0.24900  -0.10200
   19    1 UNL  C11    2.41600   1.37400   0.07700
   20    1 UNL  C12   -5.42800   0.82800  -0.59300
   21    1 UNL  C13   -5.08100  -1.05000   0.85600
   22    1 UNL  C14    0.03400   2.08000   0.22100
   23    1 UNL  C15   -1.32900   1.79000   0.20500
   24    1 UNL  C16    4.82300   0.41500  -0.10500
   25    1 UNL  H      1.02500  -2.97100  -1.53700
   26    1 UNL  H1     2.32400  -3.52000   1.23700
   27    1 UNL  H2     1.94000  -4.74900  -0.04900
   28    1 UNL  H3    -0.48300  -4.11600   0.08500
   29    1 UNL  H4    -0.07200  -2.91300   1.38800
   30    1 UNL  H5     3.52200  -1.83900  -0.40900
   31    1 UNL  H6    -1.18800  -1.55500  -0.33600
   32    1 UNL  H7    -3.84100   0.28400  -1.96200
   33    1 UNL  H8    -3.65900   1.86500  -1.20700
   34    1 UNL  H9    -3.04000  -1.43100   1.37800
   35    1 UNL  H10   -3.45100  -1.87500  -0.29200
   36    1 UNL  H11   -5.57700   1.50400   0.25800
   37    1 UNL  H12   -6.04000   1.20900  -1.41700
   38    1 UNL  H13   -5.43600  -2.05600   1.10400
   39    1 UNL  H14   -5.22000  -0.43000   1.75100
   40    1 UNL  H15    0.34900   3.11000   0.36200
   41    1 UNL  H16   -6.86000  -0.48000   0.03800
   42    1 UNL  H17    6.13300   1.60300   0.70500
Energy ihbfrq 0 inbfrq -1
Open write card unit 14 name tmp.out
Write energy card unit 14
* UNL energy before the optimization
* 
Minimise Abnr Nstep 5000 Tolgrd 0.00001
Write energy card unit 14
* UNL energy after optimization
* 
Write coor card unit 14
* UNL energy after optimization
* 
