* UNL main file generated by charmmgen
* author: Victor Bazterra 2004 CHPC
* 

Read rtf card name cortisol_CHARMM.rtf

Read param card name cortisol_CHARMM.prm

Read sequence card
* Reading the coordinates of residue
* 
    1
UNL
Generate UNL setup
Read coor card free
* Residues coordinate
* 
   56
    1    1 UNL  O      3.11400  -0.28600  -1.94200
    2    1 UNL  O1    -0.22900   2.14400   1.24000
    3    1 UNL  O2     4.32700   1.67300   0.06000
    4    1 UNL  O3     6.79900   0.58400  -0.46500
    5    1 UNL  O4    -6.42300  -0.03400  -1.34400
    6    1 UNL  C      1.89200   0.16300   0.14400
    7    1 UNL  C1     0.99800  -1.07700  -0.07400
    8    1 UNL  C2    -0.40500  -0.93900   0.53800
    9    1 UNL  C3    -1.12000   0.28900  -0.11400
   10    1 UNL  C4     3.20100  -0.34600  -0.52100
   11    1 UNL  C5     1.20200   1.35700  -0.54700
   12    1 UNL  C6    -2.61900   0.45700   0.36900
   13    1 UNL  C7    -0.24800   1.58200  -0.06500
   14    1 UNL  C8     1.88500  -2.23600   0.37100
   15    1 UNL  C9     3.30300  -1.82300  -0.07800
   16    1 UNL  C10   -1.22000  -2.22000   0.30000
   17    1 UNL  C11    2.15700   0.47200   1.64300
   18    1 UNL  C12   -3.34600  -0.88800   0.23400
   19    1 UNL  C13   -2.64400  -2.08900   0.81800
   20    1 UNL  C14   -3.30000   1.52300  -0.53700
   21    1 UNL  C15   -2.74700   0.89800   1.84500
   22    1 UNL  C16    4.41200   0.46800  -0.17400
   23    1 UNL  C17   -4.81900   1.50800  -0.45900
   24    1 UNL  C18   -4.55700  -1.03700  -0.32800
   25    1 UNL  C19   -5.34200   0.13300  -0.78400
   26    1 UNL  C20    5.73000  -0.27600  -0.13100
   27    1 UNL  H      0.84700  -1.21200  -1.15800
   28    1 UNL  H1    -0.32800  -0.79200   1.61900
   29    1 UNL  H2    -1.18300   0.04100  -1.18800
   30    1 UNL  H3     1.16500   1.19300  -1.63100
   31    1 UNL  H4     1.78900   2.26900  -0.38700
   32    1 UNL  H5    -0.69700   2.33600  -0.72100
   33    1 UNL  H6     1.58700  -3.18300  -0.08900
   34    1 UNL  H7     1.85100  -2.37100   1.45800
   35    1 UNL  H8     3.98000  -1.98000   0.76800
   36    1 UNL  H9     3.63300  -2.47300  -0.89700
   37    1 UNL  H10   -0.74100  -3.06800   0.80300
   38    1 UNL  H11   -1.24100  -2.45900  -0.77200
   39    1 UNL  H12    2.59300   1.46700   1.77800
   40    1 UNL  H13    1.24700   0.45400   2.24800
   41    1 UNL  H14    2.84200  -0.24600   2.10700
   42    1 UNL  H15   -2.63100  -2.00000   1.91100
   43    1 UNL  H16   -3.18600  -3.01600   0.59300
   44    1 UNL  H17   -3.01500   1.35000  -1.58500
   45    1 UNL  H18   -2.94700   2.53000  -0.28300
   46    1 UNL  H19   -2.08500   0.33000   2.50600
   47    1 UNL  H20   -2.52000   1.96000   1.97600
   48    1 UNL  H21   -3.76800   0.75600   2.22000
   49    1 UNL  H22    3.87300  -0.76500  -2.31700
   50    1 UNL  H23   -5.22400   2.21600  -1.19000
   51    1 UNL  H24   -5.17900   1.79700   0.53300
   52    1 UNL  H25    0.28200   2.97000   1.20000
   53    1 UNL  H26   -5.03400  -2.00700  -0.41400
   54    1 UNL  H27    5.73600  -1.08400  -0.86600
   55    1 UNL  H28    5.89400  -0.68600   0.87000
   56    1 UNL  H29    6.86200   1.25800   0.23400
Energy ihbfrq 0 inbfrq -1
Open write card unit 14 name tmp.out
Write energy card unit 14
* UNL energy before the optimization
* 
Minimise Abnr Nstep 5000 Tolgrd 0.00001
Write energy card unit 14
* UNL energy after optimization
* 
Write coor card unit 14
* UNL energy after optimization
* 
