* C1 main file generated by charmmgen
* author: Victor Bazterra 2004 CHPC
* 

Read rtf card name cytidine_CHARMM.rtf

Read param card name cytidine_CHARMM.prm

Read sequence card
* Reading the coordinates of residue
* 
    1
 C1
Generate  C1 setup
Read coor card free
* Residues coordinate
* 
   30
    1    1 C1   O4*   -1.36800  -0.53700   1.02100
    2    1 C1   O2*   -1.23100   2.35800  -1.09000
    3    1 C1   O3*   -3.40100   1.56500   0.35900
    4    1 C1   O5*   -2.34100  -3.06100   0.27700
    5    1 C1   O2     1.57500   2.29900   0.70200
    6    1 C1   N1     0.71300   0.20400   0.25900
    7    1 C1   N3     3.07600   0.68600   0.15500
    8    1 C1   N4     4.60800  -0.97000  -0.40700
    9    1 C1   C2*   -1.36300   0.98200  -0.79700
   10    1 C1   C3*   -2.79500   0.59400  -0.49400
   11    1 C1   C1*   -0.65100   0.58700   0.48500
   12    1 C1   C4*   -2.61500  -0.68800   0.30800
   13    1 C1   C5*   -2.51600  -1.93300  -0.56300
   14    1 C1   C6     0.98700  -1.10700  -0.09700
   15    1 C1   C2     1.78400   1.12600   0.38800
   16    1 C1   C5     2.22200  -1.54900  -0.32700
   17    1 C1   C4     3.31700  -0.55400  -0.18000
   18    1 C1   H2*   -0.99900   0.40800  -1.65800
   19    1 C1   H3*   -3.42400   0.49300  -1.38200
   20    1 C1   H1*   -0.67800   1.39500   1.22500
   21    1 C1   H4*   -3.39700  -0.82100   1.06400
   22    1 C1   H5*1  -1.68500  -1.89200  -1.27100
   23    1 C1   H5*2  -3.44200  -2.07100  -1.13000
   24    1 C1   H7    -0.28200   2.54600  -1.18500
   25    1 C1   H8    -2.91700   1.59300   1.20100
   26    1 C1   H6     0.16900  -1.80400  -0.19100
   27    1 C1   H5*   -2.29300  -3.84300  -0.29900
   28    1 C1   H5     2.44400  -2.57100  -0.60400
   29    1 C1   H41    4.82700  -1.92600  -0.66900
   30    1 C1   H42    5.38600  -0.32500  -0.31900
Energy ihbfrq 0 inbfrq -1
Open write card unit 14 name tmp.out
Write energy card unit 14
* C1 energy before the optimization
* 
Minimise Abnr Nstep 5000 Tolgrd 0.00001
Write energy card unit 14
* C1 energy after optimization
* 
Write coor card unit 14
* C1 energy after optimization
* 
