* UNL main file generated by charmmgen
* author: Victor Bazterra 2004 CHPC
* 

Read rtf card name triclosan_CHARMM.rtf

Read param card name triclosan_CHARMM.prm

Read sequence card
* Reading the coordinates of residue
* 
    1
UNL
Generate UNL setup
Read coor card free
* Residues coordinate
* 
   24
    1    1 UNL  Cl    -1.99300   2.64800   1.05500
    2    1 UNL  Cl1    4.99600  -1.29900   1.20900
    3    1 UNL  Cl2   -4.97500  -1.79000   0.39500
    4    1 UNL  O     -0.00400   1.16400  -0.64100
    5    1 UNL  O1     1.98700   0.51000  -2.46700
    6    1 UNL  C      1.15800   0.59100  -0.22200
    7    1 UNL  C1    -1.18300   0.48500  -0.38400
    8    1 UNL  C2     2.15800   0.26400  -1.13800
    9    1 UNL  C3     1.34500   0.33400   1.13600
   10    1 UNL  C4    -2.17500   1.06800   0.38600
   11    1 UNL  C5    -1.33500  -0.78200  -0.92000
   12    1 UNL  C6     3.34500  -0.32100  -0.69600
   13    1 UNL  C7     2.53200  -0.25000   1.57800
   14    1 UNL  C8    -3.35400   0.36200   0.62800
   15    1 UNL  C9    -2.51300  -1.48800  -0.67800
   16    1 UNL  C10    3.53200  -0.57800   0.66200
   17    1 UNL  C11   -3.52200  -0.91700   0.09600
   18    1 UNL  H      0.58300   0.59200   1.86700
   19    1 UNL  H1    -0.56400  -1.23700  -1.53500
   20    1 UNL  H2     4.12400  -0.57600  -1.41000
   21    1 UNL  H3     2.66500  -0.44300   2.64000
   22    1 UNL  H4    -4.14200   0.80700   1.23200
   23    1 UNL  H5    -2.63100  -2.48300  -1.10100
   24    1 UNL  H6     2.78000   0.21700  -2.94800
Energy ihbfrq 0 inbfrq -1
Open write card unit 14 name tmp.out
Write energy card unit 14
* UNL energy before the optimization
* 
Minimise Abnr Nstep 5000 Tolgrd 0.00001
Write energy card unit 14
* UNL energy after optimization
* 
Write coor card unit 14
* UNL energy after optimization
* 
