* UNL main file generated by charmmgen
* author: Victor Bazterra 2004 CHPC
* 

Read rtf card name progesterone_CHARMM.rtf

Read param card name progesterone_CHARMM.prm

Read sequence card
* Reading the coordinates of residue
* 
    1
UNL
Generate UNL setup
Read coor card free
* Residues coordinate
* 
   53
    1    1 UNL  O      5.51900  -0.19400  -0.67400
    2    1 UNL  O1    -6.08700  -0.25100   1.00000
    3    1 UNL  C      1.43400   0.95100   0.38400
    4    1 UNL  C1     2.30800  -0.24400  -0.05400
    5    1 UNL  C2     0.04700   0.94600  -0.26700
    6    1 UNL  C3    -0.69100  -0.37100   0.13000
    7    1 UNL  C4    -2.15200  -0.45600  -0.45800
    8    1 UNL  C5     3.60300   0.09900   0.71500
    9    1 UNL  C6     1.60700  -1.52900   0.40700
   10    1 UNL  C7     0.17700  -1.62800  -0.15400
   11    1 UNL  C8     2.34800   2.15300   0.17200
   12    1 UNL  C9    -0.78000   2.16300   0.16700
   13    1 UNL  C10    3.74100   1.62800   0.56500
   14    1 UNL  C11   -2.90100   0.84900  -0.15800
   15    1 UNL  C12    2.56700  -0.30700  -1.58200
   16    1 UNL  C13   -2.16900   2.13600  -0.45700
   17    1 UNL  C14   -2.88100  -1.65500   0.21500
   18    1 UNL  C15   -2.14700  -0.66800  -1.98900
   19    1 UNL  C16    4.81900  -0.63300   0.23700
   20    1 UNL  C17   -4.39000  -1.63300   0.03000
   21    1 UNL  C18   -4.15500   0.90100   0.32400
   22    1 UNL  C19   -4.95900  -0.32700   0.51800
   23    1 UNL  C20    5.14200  -1.93000   0.92700
   24    1 UNL  H      1.27100   0.88200   1.47300
   25    1 UNL  H1     0.15900   0.99500  -1.35500
   26    1 UNL  H2    -0.80000  -0.33300   1.22600
   27    1 UNL  H3     3.47900  -0.11600   1.78500
   28    1 UNL  H4     1.55600  -1.56000   1.50300
   29    1 UNL  H5     2.17200  -2.41400   0.09600
   30    1 UNL  H6     0.23000  -1.81700  -1.23100
   31    1 UNL  H7    -0.29100  -2.51300   0.29000
   32    1 UNL  H8     2.05700   3.00800   0.79200
   33    1 UNL  H9     2.34200   2.48400  -0.87300
   34    1 UNL  H10   -0.27800   3.08900  -0.13600
   35    1 UNL  H11   -0.86600   2.19100   1.26100
   36    1 UNL  H12    4.47900   1.94100  -0.18000
   37    1 UNL  H13    4.05500   2.06600   1.52100
   38    1 UNL  H14    3.12000   0.56300  -1.94900
   39    1 UNL  H15    3.15100  -1.19800  -1.83900
   40    1 UNL  H16    1.64500  -0.36200  -2.16500
   41    1 UNL  H17   -2.08500   2.25300  -1.54400
   42    1 UNL  H18   -2.73200   3.00600  -0.09700
   43    1 UNL  H19   -2.67200  -1.65100   1.29400
   44    1 UNL  H20   -2.49900  -2.60800  -0.17100
   45    1 UNL  H21   -1.53000   0.07100  -2.50900
   46    1 UNL  H22   -1.76800  -1.66000  -2.25800
   47    1 UNL  H23   -3.15700  -0.58900  -2.40900
   48    1 UNL  H24   -4.83500  -2.44600   0.61500
   49    1 UNL  H25   -4.67500  -1.77200  -1.01700
   50    1 UNL  H26   -4.64800   1.84400   0.53600
   51    1 UNL  H27    5.23200  -1.76500   2.00400
   52    1 UNL  H28    4.36900  -2.67100   0.72200
   53    1 UNL  H29    6.09800  -2.31100   0.55600
Energy ihbfrq 0 inbfrq -1
Open write card unit 14 name tmp.out
Write energy card unit 14
* UNL energy before the optimization
* 
Minimise Abnr Nstep 5000 Tolgrd 0.00001
Write energy card unit 14
* UNL energy after optimization
* 
Write coor card unit 14
* UNL energy after optimization
* 
