* G1 main file generated by charmmgen
* author: Victor Bazterra 2004 CHPC
* 

Read rtf card name guanosine_CHARMM.rtf

Read param card name guanosine_CHARMM.prm

Read sequence card
* Reading the coordinates of residue
* 
    1
 G1
Generate  G1 setup
Read coor card free
* Residues coordinate
* 
   33
    1    1 G1   O4*    2.25200   0.39500   1.00600
    2    1 G1   O2*    1.20600  -2.15400  -1.31600
    3    1 G1   O3*    3.41900  -2.31300   0.31100
    4    1 G1   O5*    4.19200   2.35900   0.52800
    5    1 G1   O6    -4.25100   1.93500  -0.43600
    6    1 G1   N9    -0.03100   0.42800   0.14100
    7    1 G1   N7    -1.29700   2.21500  -0.31500
    8    1 G1   N3    -1.73600  -1.27000   0.39700
    9    1 G1   N1    -3.91000  -0.32100   0.06400
   10    1 G1   N2    -3.66000  -2.60800   0.56400
   11    1 G1   C2*    1.82100  -0.95500  -0.89000
   12    1 G1   C1*    1.21200  -0.39300   0.39000
   13    1 G1   C3*    3.27200  -1.14300  -0.49200
   14    1 G1   C4*    3.52100   0.07100   0.39500
   15    1 G1   C5*    4.00200   1.28900  -0.38100
   16    1 G1   C4    -1.32300  -0.00700   0.15400
   17    1 G1   C8    -0.06600   1.77100  -0.14600
   18    1 G1   C5    -2.07300   1.10900  -0.12800
   19    1 G1   C6    -3.50400   0.99600  -0.19100
   20    1 G1   C2    -3.04400  -1.40300   0.34600
   21    1 G1   H2*    1.74600  -0.22300  -1.70400
   22    1 G1   H1*    0.90800  -1.17700   1.09500
   23    1 G1   H3*    3.94900  -1.23400  -1.34600
   24    1 G1   H4*    4.21600  -0.14500   1.21400
   25    1 G1   H5*1   3.26400   1.61100  -1.12200
   26    1 G1   H5*2   4.95100   1.08200  -0.88300
   27    1 G1   H6     1.72100  -2.49600  -2.06600
   28    1 G1   H7     4.35500  -2.37100   0.57000
   29    1 G1   H8     0.83000   2.37100  -0.22200
   30    1 G1   H5*    4.50100   3.12300   0.01100
   31    1 G1   H1    -4.90800  -0.51300   0.04400
   32    1 G1   H21   -3.12300  -3.44300   0.77300
   33    1 G1   H22   -4.66900  -2.70100   0.52200
Energy ihbfrq 0 inbfrq -1
Open write card unit 14 name tmp.out
Write energy card unit 14
* G1 energy before the optimization
* 
Minimise Abnr Nstep 5000 Tolgrd 0.00001
Write energy card unit 14
* G1 energy after optimization
* 
Write coor card unit 14
* G1 energy after optimization
* 
