* UNL main file generated by charmmgen
* author: Victor Bazterra 2004 CHPC
* 

Read rtf card name ibuprofen_CHARMM.rtf

Read param card name ibuprofen_CHARMM.prm

Read sequence card
* Reading the coordinates of residue
* 
    1
UNL
Generate UNL setup
Read coor card free
* Residues coordinate
* 
   33
    1    1 UNL  O     -4.44600  -1.00300   0.41100
    2    1 UNL  O1    -2.40100  -1.91100   0.05300
    3    1 UNL  C      3.90200  -0.44100   0.03600
    4    1 UNL  C1     3.14900   0.81900  -0.43100
    5    1 UNL  C2     1.65300   0.73900  -0.24700
    6    1 UNL  C3    -1.09500   0.59400   0.09000
    7    1 UNL  C4    -2.57300   0.51500   0.27200
    8    1 UNL  C5     3.60800  -0.77600   1.50000
    9    1 UNL  C6     3.52400  -1.63000  -0.85100
   10    1 UNL  C7     0.86900   0.22800  -1.27000
   11    1 UNL  C8     1.09000   1.17900   0.94100
   12    1 UNL  C9    -0.51300   0.15500  -1.10000
   13    1 UNL  C10   -0.29300   1.10600   1.11000
   14    1 UNL  C11   -3.37400   1.34900  -0.74900
   15    1 UNL  C12   -3.10000  -0.92300   0.23300
   16    1 UNL  H      4.97800  -0.25300  -0.07300
   17    1 UNL  H1     3.37900   1.02400  -1.48500
   18    1 UNL  H2     3.53000   1.69100   0.11800
   19    1 UNL  H3    -2.82400   0.89000   1.27400
   20    1 UNL  H4     2.57900  -1.11700   1.65700
   21    1 UNL  H5     3.79600   0.08800   2.14600
   22    1 UNL  H6     4.26600  -1.58500   1.83700
   23    1 UNL  H7     4.17800  -2.48100  -0.63000
   24    1 UNL  H8     2.49600  -1.96900  -0.68600
   25    1 UNL  H9     3.64900  -1.38900  -1.91100
   26    1 UNL  H10    1.30800  -0.11000  -2.20400
   27    1 UNL  H11    1.70200   1.58500   1.74000
   28    1 UNL  H12   -1.12100  -0.24500  -1.90700
   29    1 UNL  H13   -0.72900   1.45300   2.04300
   30    1 UNL  H14   -3.00100   2.37900  -0.78400
   31    1 UNL  H15   -3.30300   0.92900  -1.75800
   32    1 UNL  H16   -4.43600   1.38900  -0.48300
   33    1 UNL  H17   -4.76400  -1.93100   0.37800
Energy ihbfrq 0 inbfrq -1
Open write card unit 14 name tmp.out
Write energy card unit 14
* UNL energy before the optimization
* 
Minimise Abnr Nstep 5000 Tolgrd 0.00001
Write energy card unit 14
* UNL energy after optimization
* 
Write coor card unit 14
* UNL energy after optimization
* 
