* UNL main file generated by charmmgen
* author: Victor Bazterra 2004 CHPC
* 

Read rtf card name beta-sitosterol_CHARMM.rtf

Read param card name beta-sitosterol_CHARMM.prm

Read sequence card
* Reading the coordinates of residue
* 
    1
UNL
Generate UNL setup
Read coor card free
* Residues coordinate
* 
   80
    1    1 UNL  O      8.42800   0.64400  -0.14500
    2    1 UNL  C     -0.28700   0.01200   0.12600
    3    1 UNL  C1     0.66600  -1.10900   0.58500
    4    1 UNL  C2     2.05700  -1.01900  -0.05100
    5    1 UNL  C3     2.69500   0.36000   0.28700
    6    1 UNL  C4    -1.56300  -0.41900   0.89000
    7    1 UNL  C5     0.31700   1.34700   0.58400
    8    1 UNL  C6     4.12000   0.51800  -0.38000
    9    1 UNL  C7    -0.15100  -2.38200   0.38900
   10    1 UNL  C8     1.73200   1.54900   0.01600
   11    1 UNL  C9    -1.59500  -1.95500   0.71200
   12    1 UNL  C10    2.96000  -2.15600   0.45300
   13    1 UNL  C11   -2.86400   0.25200   0.47500
   14    1 UNL  C12   -0.53500   0.04300  -1.40300
   15    1 UNL  C13    4.94900  -0.76200  -0.20600
   16    1 UNL  C14    4.85600   1.70100   0.31600
   17    1 UNL  C15    4.41200  -1.93300   0.17900
   18    1 UNL  C16    4.00300   0.80900  -1.89600
   19    1 UNL  C17    6.43200  -0.66600  -0.47900
   20    1 UNL  C18   -4.03800  -0.31300   1.30300
   21    1 UNL  C19    6.34100   1.80900  -0.02700
   22    1 UNL  C20    7.07200   0.50300   0.26500
   23    1 UNL  C21   -2.74100   1.77300   0.61700
   24    1 UNL  C22   -5.41200   0.33500   1.06600
   25    1 UNL  C23   -6.01300   0.17000  -0.35400
   26    1 UNL  C24   -7.35100   0.95700  -0.52900
   27    1 UNL  C25   -6.13900  -1.32900  -0.72100
   28    1 UNL  C26   -7.18500   2.45500  -0.24100
   29    1 UNL  C27   -8.51200   0.40100   0.30000
   30    1 UNL  C28   -6.65300  -1.59400  -2.13000
   31    1 UNL  H      0.81400  -1.00900   1.67300
   32    1 UNL  H1     1.96700  -1.12500  -1.13700
   33    1 UNL  H2     2.85200   0.35800   1.37800
   34    1 UNL  H3    -1.40400  -0.22300   1.96200
   35    1 UNL  H4     0.37000   1.38300   1.68000
   36    1 UNL  H5    -0.26200   2.21600   0.27200
   37    1 UNL  H6     0.18300  -3.18900   1.04900
   38    1 UNL  H7    -0.08200  -2.74900  -0.64200
   39    1 UNL  H8     1.64700   1.73700  -1.05900
   40    1 UNL  H9     2.14500   2.46500   0.45500
   41    1 UNL  H10   -2.25700  -2.26700  -0.10400
   42    1 UNL  H11   -1.94500  -2.44300   1.62800
   43    1 UNL  H12    2.65200  -3.09500  -0.02400
   44    1 UNL  H13    2.83900  -2.29500   1.53400
   45    1 UNL  H14   -3.08000   0.03000  -0.57700
   46    1 UNL  H15   -1.15200   0.89800  -1.69600
   47    1 UNL  H16    0.39200   0.12400  -1.97700
   48    1 UNL  H17   -1.04300  -0.85900  -1.76000
   49    1 UNL  H18    4.77100   1.59600   1.40700
   50    1 UNL  H19    4.37600   2.65300   0.06000
   51    1 UNL  H20    5.05500  -2.80100   0.30500
   52    1 UNL  H21    3.39600   0.05500  -2.40900
   53    1 UNL  H22    3.55300   1.78800  -2.08700
   54    1 UNL  H23    4.97800   0.82100  -2.39400
   55    1 UNL  H24    6.95400  -1.59100  -0.20000
   56    1 UNL  H25    6.60300  -0.56100  -1.55800
   57    1 UNL  H26   -4.12300  -1.39600   1.16900
   58    1 UNL  H27   -3.80200  -0.17500   2.36800
   59    1 UNL  H28    6.47500   2.09100  -1.07900
   60    1 UNL  H29    6.79800   2.62200   0.55100
   61    1 UNL  H30    7.06700   0.31300   1.34500
   62    1 UNL  H31   -2.17000   2.20600  -0.20400
   63    1 UNL  H32   -2.30200   2.06200   1.57700
   64    1 UNL  H33   -3.70900   2.27400   0.54200
   65    1 UNL  H34   -5.37000   1.38600   1.35700
   66    1 UNL  H35   -6.10200  -0.12900   1.78400
   67    1 UNL  H36   -5.30100   0.61600  -1.06300
   68    1 UNL  H37    8.88200  -0.19300   0.05100
   69    1 UNL  H38   -7.64100   0.88400  -1.58500
   70    1 UNL  H39   -5.15100  -1.80000  -0.66300
   71    1 UNL  H40   -6.77200  -1.85300   0.00500
   72    1 UNL  H41   -6.31700   2.86200  -0.76800
   73    1 UNL  H42   -7.07300   2.66000   0.82800
   74    1 UNL  H43   -8.06800   3.00600  -0.58400
   75    1 UNL  H44   -9.42600   0.97500   0.11000
   76    1 UNL  H45   -8.30700   0.45600   1.37300
   77    1 UNL  H46   -8.72900  -0.64000   0.04500
   78    1 UNL  H47   -7.70200  -1.30500  -2.23800
   79    1 UNL  H48   -6.58300  -2.66200  -2.35900
   80    1 UNL  H49   -6.06200  -1.04900  -2.87200
Energy ihbfrq 0 inbfrq -1
Open write card unit 14 name tmp.out
Write energy card unit 14
* UNL energy before the optimization
* 
Minimise Abnr Nstep 5000 Tolgrd 0.00001
Write energy card unit 14
* UNL energy after optimization
* 
Write coor card unit 14
* UNL energy after optimization
* 
