* UNL main file generated by charmmgen
* author: Victor Bazterra 2004 CHPC
* 

Read rtf card name naproxen_CHARMM.rtf

Read param card name naproxen_CHARMM.prm

Read sequence card
* Reading the coordinates of residue
* 
    1
UNL
Generate UNL setup
Read coor card free
* Residues coordinate
* 
   31
    1    1 UNL  O     -4.68800  -0.18100  -0.25300
    2    1 UNL  O1     5.07800   0.76300  -0.47000
    3    1 UNL  O2     3.08000   1.23300  -1.43100
    4    1 UNL  C      3.14200  -0.40000   0.38400
    5    1 UNL  C1     1.67300  -0.58300   0.20400
    6    1 UNL  C2    -0.58100   0.33200   0.25000
    7    1 UNL  C3    -1.09400  -0.92900  -0.13600
    8    1 UNL  C4     0.80500   0.48900   0.41500
    9    1 UNL  C5     1.16800  -1.82400  -0.17500
   10    1 UNL  C6    -0.20600  -1.99700  -0.34400
   11    1 UNL  C7     3.54600  -0.00300   1.81800
   12    1 UNL  C8    -1.46900   1.40000   0.45800
   13    1 UNL  C9    -2.48000  -1.08500  -0.30100
   14    1 UNL  C10   -3.34700  -0.01300  -0.09000
   15    1 UNL  C11    3.73300   0.61500  -0.60000
   16    1 UNL  C12   -2.84300   1.22700   0.28900
   17    1 UNL  C13   -5.51800   0.95500  -0.01800
   18    1 UNL  H      3.64400  -1.35000   0.15400
   19    1 UNL  H1     1.20200   1.45800   0.71300
   20    1 UNL  H2     1.83000  -2.66900  -0.34400
   21    1 UNL  H3    -0.57800  -2.97500  -0.64100
   22    1 UNL  H4     4.63400  -0.02600   1.94300
   23    1 UNL  H5     3.21100   1.01100   2.06600
   24    1 UNL  H6     3.11100  -0.69300   2.55000
   25    1 UNL  H7    -1.09500   2.37900   0.75500
   26    1 UNL  H8    -2.89000  -2.04900  -0.59700
   27    1 UNL  H9    -3.45900   2.10100   0.47000
   28    1 UNL  H10    5.43800   1.41300  -1.11100
   29    1 UNL  H11   -6.55300   0.64100  -0.19300
   30    1 UNL  H12   -5.30500   1.76200  -0.72800
   31    1 UNL  H13   -5.45800   1.29000   1.02300
Energy ihbfrq 0 inbfrq -1
Open write card unit 14 name tmp.out
Write energy card unit 14
* UNL energy before the optimization
* 
Minimise Abnr Nstep 5000 Tolgrd 0.00001
Write energy card unit 14
* UNL energy after optimization
* 
Write coor card unit 14
* UNL energy after optimization
* 
