* UNL main file generated by charmmgen
* author: Victor Bazterra 2004 CHPC
* 

Read rtf card name thymine_CHARMM.rtf

Read param card name thymine_CHARMM.prm

Read sequence card
* Reading the coordinates of residue
* 
    1
UNL
Generate UNL setup
Read coor card free
* Residues coordinate
* 
   15
    1    1 UNL  O     -1.51900   1.80700  -0.00100
    2    1 UNL  O1     2.83900   0.29100  -0.00100
    3    1 UNL  N      0.66400   1.06200   0.00100
    4    1 UNL  N1     1.11500  -1.23200  -0.00000
    5    1 UNL  C     -1.16100  -0.54300   0.00000
    6    1 UNL  C1    -0.71300   0.88000   0.00000
    7    1 UNL  C2    -0.22600  -1.50100  -0.00000
    8    1 UNL  C3    -2.63000  -0.81900  -0.00000
    9    1 UNL  C4     1.63100   0.05400   0.00000
   10    1 UNL  H     -0.47900  -2.55500  -0.00000
   11    1 UNL  H1     1.00100   2.02100   0.00100
   12    1 UNL  H2     1.75600  -2.01900  -0.00100
   13    1 UNL  H3    -3.10000  -0.38600  -0.88900
   14    1 UNL  H4    -3.10100  -0.38600   0.88900
   15    1 UNL  H5    -2.84300  -1.89300  -0.00000
Energy ihbfrq 0 inbfrq -1
Open write card unit 14 name tmp.out
Write energy card unit 14
* UNL energy before the optimization
* 
Minimise Abnr Nstep 5000 Tolgrd 0.00001
Write energy card unit 14
* UNL energy after optimization
* 
Write coor card unit 14
* UNL energy after optimization
* 
