* UNL main file generated by charmmgen
* author: Victor Bazterra 2004 CHPC
* 

Read rtf card name deoxyribose_CHARMM.rtf

Read param card name deoxyribose_CHARMM.prm

Read sequence card
* Reading the coordinates of residue
* 
    1
UNL
Generate UNL setup
Read coor card free
* Residues coordinate
* 
   19
    1    1 UNL  O     -0.20700  -1.03000   0.35100
    2    1 UNL  O1     1.24000   1.69700   0.74500
    3    1 UNL  O2     2.13500  -1.17000   0.50300
    4    1 UNL  O3    -2.94600  -0.50700   0.24300
    5    1 UNL  C      0.36600   1.19500  -0.26300
    6    1 UNL  C1    -0.70900   0.32100   0.37000
    7    1 UNL  C2     1.11300   0.23000  -1.15800
    8    1 UNL  C3     1.02400  -1.07300  -0.38100
    9    1 UNL  C4    -2.01600   0.33800  -0.41100
   10    1 UNL  H     -0.03200   2.05600  -0.81000
   11    1 UNL  H1    -0.89100   0.57900   1.42000
   12    1 UNL  H2     0.57100   0.12500  -2.10500
   13    1 UNL  H3     2.14300   0.53600  -1.36200
   14    1 UNL  H4     1.03100  -1.95100  -1.03300
   15    1 UNL  H5    -1.88300  -0.05100  -1.42500
   16    1 UNL  H6    -2.43700   1.34600  -0.47100
   17    1 UNL  H7     0.71500   2.27400   1.32400
   18    1 UNL  H8     2.37100  -0.27700   0.80700
   19    1 UNL  H9    -3.10000  -0.14500   1.13200
Energy ihbfrq 0 inbfrq -1
Open write card unit 14 name tmp.out
Write energy card unit 14
* UNL energy before the optimization
* 
Minimise Abnr Nstep 5000 Tolgrd 0.00001
Write energy card unit 14
* UNL energy after optimization
* 
Write coor card unit 14
* UNL energy after optimization
* 
