* UNL main file generated by charmmgen
* author: Victor Bazterra 2004 CHPC
* 

Read rtf card name atrazine_CHARMM.rtf

Read param card name atrazine_CHARMM.prm

Read sequence card
* Reading the coordinates of residue
* 
    1
UNL
Generate UNL setup
Read coor card free
* Residues coordinate
* 
   28
    1    1 UNL  Cl    -1.44200   3.82000  -0.10700
    2    1 UNL  N      2.16000   0.43600   0.10600
    3    1 UNL  N1    -2.28700  -1.05300   0.03300
    4    1 UNL  N2    -0.05300  -0.33900   0.07000
    5    1 UNL  N3     0.42600   2.01100   0.00700
    6    1 UNL  N4    -1.84900   1.24900  -0.03100
    7    1 UNL  C      2.70500  -0.90300   0.16600
    8    1 UNL  C1     4.12200  -0.84400   0.72000
    9    1 UNL  C2     2.67800  -1.52600  -1.22400
   10    1 UNL  C3     0.80500   0.71100   0.06000
   11    1 UNL  C4    -1.90300  -2.42900   0.08800
   12    1 UNL  C5    -1.35000   0.00400   0.02400
   13    1 UNL  C6    -3.11200  -3.34100   0.12400
   14    1 UNL  C7    -0.90200   2.20200  -0.03600
   15    1 UNL  H      2.11500  -1.52300   0.85200
   16    1 UNL  H1     2.79100   1.22800   0.04700
   17    1 UNL  H2     4.55400  -1.84700   0.79800
   18    1 UNL  H3     4.77800  -0.24100   0.08100
   19    1 UNL  H4     4.13100  -0.39400   1.71900
   20    1 UNL  H5     1.65800  -1.61700  -1.60900
   21    1 UNL  H6     3.11500  -2.53000  -1.20600
   22    1 UNL  H7     3.24700  -0.92300  -1.94100
   23    1 UNL  H8    -1.29300  -2.68600  -0.78600
   24    1 UNL  H9    -1.29700  -2.61700   0.98200
   25    1 UNL  H10   -3.26500  -0.79200  -0.00600
   26    1 UNL  H11   -3.73500  -3.13300   1.00000
   27    1 UNL  H12   -3.73300  -3.20500  -0.76700
   28    1 UNL  H13   -2.80000  -4.38900   0.16700
Energy ihbfrq 0 inbfrq -1
Open write card unit 14 name tmp.out
Write energy card unit 14
* UNL energy before the optimization
* 
Minimise Abnr Nstep 5000 Tolgrd 0.00001
Write energy card unit 14
* UNL energy after optimization
* 
Write coor card unit 14
* UNL energy after optimization
* 
