* UNL main file generated by charmmgen
* author: Victor Bazterra 2004 CHPC
* 

Read rtf card name androstenedione_CHARMM.rtf

Read param card name androstenedione_CHARMM.prm

Read sequence card
* Reading the coordinates of residue
* 
    1
UNL
Generate UNL setup
Read coor card free
* Residues coordinate
* 
   47
    1    1 UNL  O     -4.94400  -1.06900  -0.87600
    2    1 UNL  O1     5.55800   0.15000  -1.03900
    3    1 UNL  C     -0.63300   0.77500   0.35800
    4    1 UNL  C1     0.19700  -0.44900  -0.14700
    5    1 UNL  C2    -2.02200   0.71400  -0.28400
    6    1 UNL  C3    -2.77800  -0.57100   0.11200
    7    1 UNL  C4     1.66800  -0.46700   0.42300
    8    1 UNL  C5    -0.56800  -1.79000   0.03600
    9    1 UNL  C6    -2.02000  -1.75600  -0.47600
   10    1 UNL  C7     0.09300   2.08100   0.01300
   11    1 UNL  C8    -3.02700   1.83200  -0.03100
   12    1 UNL  C9     2.31200   0.91000   0.22000
   13    1 UNL  C10   -4.11800  -0.24000  -0.51900
   14    1 UNL  C11    1.48900   2.11100   0.62200
   15    1 UNL  C12   -4.32400   1.26200  -0.62400
   16    1 UNL  C13    2.47700  -1.55100  -0.34600
   17    1 UNL  C14   -3.03700  -0.76200   1.61800
   18    1 UNL  C15    1.69800  -0.79600   1.93300
   19    1 UNL  C16    3.98200  -1.42900  -0.16900
   20    1 UNL  C17    3.55200   1.09500  -0.26400
   21    1 UNL  C18    4.44500  -0.05000  -0.55700
   22    1 UNL  H     -0.73700   0.73000   1.44700
   23    1 UNL  H1     0.29000  -0.31600  -1.23800
   24    1 UNL  H2    -1.86400   0.70500  -1.37700
   25    1 UNL  H3    -0.57700  -2.07700   1.09300
   26    1 UNL  H4    -0.04700  -2.59400  -0.49600
   27    1 UNL  H5    -2.01500  -1.69800  -1.57300
   28    1 UNL  H6    -2.52100  -2.69900  -0.22700
   29    1 UNL  H7    -0.47400   2.93900   0.39200
   30    1 UNL  H8     0.16100   2.20000  -1.07600
   31    1 UNL  H9    -2.75000   2.76800  -0.52400
   32    1 UNL  H10   -3.14100   2.03900   1.03900
   33    1 UNL  H11    1.41100   2.13800   1.71600
   34    1 UNL  H12    1.97900   3.04700   0.32700
   35    1 UNL  H13   -4.42700   1.53100  -1.67900
   36    1 UNL  H14   -5.20100   1.57800  -0.05400
   37    1 UNL  H15    2.25600  -1.47900  -1.42100
   38    1 UNL  H16    2.17200  -2.55700  -0.03400
   39    1 UNL  H17   -3.63700   0.04800   2.04500
   40    1 UNL  H18   -3.60200  -1.68700   1.79000
   41    1 UNL  H19   -2.11600  -0.83100   2.20300
   42    1 UNL  H20    1.03200  -0.14900   2.51200
   43    1 UNL  H21    1.40100  -1.83200   2.12600
   44    1 UNL  H22    2.70400  -0.67000   2.35100
   45    1 UNL  H23    4.48000  -2.15800  -0.81800
   46    1 UNL  H24    4.28900  -1.62600   0.86300
   47    1 UNL  H25    3.97000   2.08600  -0.40600
Energy ihbfrq 0 inbfrq -1
Open write card unit 14 name tmp.out
Write energy card unit 14
* UNL energy before the optimization
* 
Minimise Abnr Nstep 5000 Tolgrd 0.00001
Write energy card unit 14
* UNL energy after optimization
* 
Write coor card unit 14
* UNL energy after optimization
* 
