* UNL main file generated by charmmgen
* author: Victor Bazterra 2004 CHPC
* 

Read rtf card name fructose_CHARMM.rtf

Read param card name fructose_CHARMM.prm

Read sequence card
* Reading the coordinates of residue
* 
    1
UNL
Generate UNL setup
Read coor card free
* Residues coordinate
* 
   24
    1    1 UNL  O      0.66200   1.32300  -0.09900
    2    1 UNL  O1     0.09000  -2.30900  -0.10700
    3    1 UNL  O2     1.32000  -0.35300   1.43600
    4    1 UNL  O3    -2.60600  -1.23600  -0.08500
    5    1 UNL  O4    -2.05900   1.27200  -1.06900
    6    1 UNL  O5     3.27100   0.47600  -0.37000
    7    1 UNL  C     -0.21000  -0.93700  -0.35100
    8    1 UNL  C1     0.98600  -0.06400   0.07500
    9    1 UNL  C2    -1.47200  -0.53500   0.41800
   10    1 UNL  C3    -1.72100   0.96700   0.28600
   11    1 UNL  C4    -0.47100   1.75400   0.66200
   12    1 UNL  C5     2.21000  -0.35700  -0.79600
   13    1 UNL  H     -0.40000  -0.83000  -1.42700
   14    1 UNL  H1    -1.37300  -0.81200   1.47400
   15    1 UNL  H2    -2.56900   1.27700   0.90600
   16    1 UNL  H3    -0.61400   2.81600   0.43600
   17    1 UNL  H4    -0.24800   1.66500   1.73100
   18    1 UNL  H5     2.01700  -0.14900  -1.85300
   19    1 UNL  H6     2.55200  -1.39100  -0.68800
   20    1 UNL  H7     0.73600  -2.59600  -0.77400
   21    1 UNL  H8     2.25600  -0.12800   1.57200
   22    1 UNL  H9    -2.62200  -1.13700  -1.05100
   23    1 UNL  H10   -2.92900   0.87900  -1.24800
   24    1 UNL  H11    2.97500   1.39800  -0.45900
Energy ihbfrq 0 inbfrq -1
Open write card unit 14 name tmp.out
Write energy card unit 14
* UNL energy before the optimization
* 
Minimise Abnr Nstep 5000 Tolgrd 0.00001
Write energy card unit 14
* UNL energy after optimization
* 
Write coor card unit 14
* UNL energy after optimization
* 
