* UNL main file generated by charmmgen
* author: Victor Bazterra 2004 CHPC
* 

Read rtf card name ergosterol_CHARMM.rtf

Read param card name ergosterol_CHARMM.prm

Read sequence card
* Reading the coordinates of residue
* 
    1
UNL
Generate UNL setup
Read coor card free
* Residues coordinate
* 
   73
    1    1 UNL  O      8.29100  -0.10100   0.25900
    2    1 UNL  C     -0.40900   0.33400  -0.10000
    3    1 UNL  C1     0.35300  -0.86400   0.50000
    4    1 UNL  C2    -1.82800   0.04200   0.44600
    5    1 UNL  C3     2.55600   0.44800   0.42900
    6    1 UNL  C4     0.22600   1.61600   0.46500
    7    1 UNL  C5     1.81900  -0.86600   0.15000
    8    1 UNL  C6    -0.55500  -2.05500   0.18300
    9    1 UNL  C7     4.03500   0.51000  -0.17100
   10    1 UNL  C8    -1.98100  -1.48700   0.28300
   11    1 UNL  C9     1.71200   1.71200   0.08600
   12    1 UNL  C10   -0.38900   0.35500  -1.64800
   13    1 UNL  C11   -2.97100   0.82200  -0.18900
   14    1 UNL  C12    4.66800  -0.88300  -0.28600
   15    1 UNL  C13    4.88600   1.40700   0.77600
   16    1 UNL  C14    2.48300  -1.96900  -0.22600
   17    1 UNL  C15    4.05300   1.10900  -1.59900
   18    1 UNL  C16    3.91800  -1.99600  -0.32200
   19    1 UNL  C17    6.16900  -0.97000  -0.43000
   20    1 UNL  C18    6.38800   1.35600   0.50700
   21    1 UNL  C19    6.90200  -0.08000   0.56900
   22    1 UNL  C20   -2.77100   2.32800  -0.00200
   23    1 UNL  C21   -4.29100   0.40000   0.40800
   24    1 UNL  C22   -5.29200  -0.14300  -0.30200
   25    1 UNL  C23   -6.61000  -0.57900   0.29900
   26    1 UNL  C24   -7.80300   0.19700  -0.32800
   27    1 UNL  C25   -6.73700  -2.09600   0.11800
   28    1 UNL  C26   -7.67500   1.71300  -0.13100
   29    1 UNL  C27   -9.14800  -0.26200   0.25500
   30    1 UNL  H      0.33500  -0.76500   1.59900
   31    1 UNL  H1    -1.82800   0.24700   1.52800
   32    1 UNL  H2     2.65000   0.45300   1.52700
   33    1 UNL  H3     0.13700   1.63900   1.55800
   34    1 UNL  H4    -0.24700   2.52500   0.09500
   35    1 UNL  H5    -0.40400  -2.88100   0.88700
   36    1 UNL  H6    -0.37900  -2.44500  -0.82600
   37    1 UNL  H7    -2.54300  -1.75800  -0.61800
   38    1 UNL  H8    -2.51000  -1.91600   1.14200
   39    1 UNL  H9     1.75400   1.93100  -0.98500
   40    1 UNL  H10    2.14600   2.58400   0.59100
   41    1 UNL  H11    0.62500   0.27200  -2.05100
   42    1 UNL  H12   -0.96300  -0.46900  -2.08400
   43    1 UNL  H13   -0.81000   1.28700  -2.04100
   44    1 UNL  H14   -3.00800   0.62600  -1.26800
   45    1 UNL  H15    4.72900   1.09700   1.81800
   46    1 UNL  H16    4.55200   2.45000   0.71200
   47    1 UNL  H17    1.97600  -2.91700  -0.36900
   48    1 UNL  H18    5.03400   1.02300  -2.07800
   49    1 UNL  H19    3.33300   0.60100  -2.25200
   50    1 UNL  H20    3.81500   2.17900  -1.59300
   51    1 UNL  H21    4.37500  -2.97400  -0.43300
   52    1 UNL  H22    6.52400  -2.00200  -0.31000
   53    1 UNL  H23    6.45300  -0.68900  -1.45200
   54    1 UNL  H24    6.62600   1.80300  -0.46600
   55    1 UNL  H25    6.91800   1.96800   1.24700
   56    1 UNL  H26    6.77900  -0.48000   1.58300
   57    1 UNL  H27   -2.42700   2.58200   1.00600
   58    1 UNL  H28   -3.71600   2.86400  -0.16000
   59    1 UNL  H29   -2.08300   2.73700  -0.74600
   60    1 UNL  H30   -4.41900   0.54900   1.47800
   61    1 UNL  H31   -5.16600  -0.29300  -1.37200
   62    1 UNL  H32    8.74500   0.46600   0.90600
   63    1 UNL  H33   -6.59900  -0.37800   1.38000
   64    1 UNL  H34   -7.82700   0.00400  -1.40900
   65    1 UNL  H35   -7.57700  -2.49700   0.69300
   66    1 UNL  H36   -5.83700  -2.61300   0.47100
   67    1 UNL  H37   -6.88600  -2.36300  -0.93500
   68    1 UNL  H38   -8.54400   2.23400  -0.54800
   69    1 UNL  H39   -7.60600   1.96900   0.93100
   70    1 UNL  H40   -6.79000   2.11100  -0.63700
   71    1 UNL  H41   -9.15700  -0.17500   1.34600
   72    1 UNL  H42   -9.97000   0.34500  -0.13900
   73    1 UNL  H43   -9.36500  -1.30100  -0.01100
Energy ihbfrq 0 inbfrq -1
Open write card unit 14 name tmp.out
Write energy card unit 14
* UNL energy before the optimization
* 
Minimise Abnr Nstep 5000 Tolgrd 0.00001
Write energy card unit 14
* UNL energy after optimization
* 
Write coor card unit 14
* UNL energy after optimization
* 
