* UNL main file generated by charmmgen
* author: Victor Bazterra 2004 CHPC
* 

Read rtf card name aspirin_CHARMM.rtf

Read param card name aspirin_CHARMM.prm

Read sequence card
* Reading the coordinates of residue
* 
    1
UNL
Generate UNL setup
Read coor card free
* Residues coordinate
* 
   21
    1    1 UNL  O      1.23300   0.55400   0.77900
    2    1 UNL  O1    -0.69500  -2.71500  -0.75000
    3    1 UNL  O2     0.79600  -2.18400   0.86900
    4    1 UNL  O3     1.78100   0.81000  -1.48200
    5    1 UNL  C     -0.08600   0.60900   0.44000
    6    1 UNL  C1    -0.79300  -0.55100   0.12400
    7    1 UNL  C2    -0.72900   1.84600   0.41300
    8    1 UNL  C3    -2.14300  -0.47400  -0.21800
    9    1 UNL  C4    -2.07900   1.92400   0.07100
   10    1 UNL  C5    -2.78500   0.76400  -0.24500
   11    1 UNL  C6    -0.14100  -1.85400   0.14800
   12    1 UNL  C7     2.10900   0.67100  -0.31100
   13    1 UNL  C8     3.53000   0.60000   0.16400
   14    1 UNL  H     -0.18500   2.75500   0.65900
   15    1 UNL  H1    -2.72500  -1.36100  -0.45600
   16    1 UNL  H2    -2.58000   2.88700   0.05100
   17    1 UNL  H3    -3.83700   0.82400  -0.50900
   18    1 UNL  H4     3.72900   1.41800   0.85900
   19    1 UNL  H5     4.20500   0.69700  -0.69200
   20    1 UNL  H6     3.71100  -0.36600   0.64300
   21    1 UNL  H7    -0.25600  -3.59200  -0.73400
Energy ihbfrq 0 inbfrq -1
Open write card unit 14 name tmp.out
Write energy card unit 14
* UNL energy before the optimization
* 
Minimise Abnr Nstep 5000 Tolgrd 0.00001
Write energy card unit 14
* UNL energy after optimization
* 
Write coor card unit 14
* UNL energy after optimization
* 
