* UNL main file generated by charmmgen
* author: Victor Bazterra 2004 CHPC
* 

Read rtf card name diethylstilbestrol_CHARMM.rtf

Read param card name diethylstilbestrol_CHARMM.prm

Read sequence card
* Reading the coordinates of residue
* 
    1
UNL
Generate UNL setup
Read coor card free
* Residues coordinate
* 
   40
    1    1 UNL  O     -5.98600   0.25000  -0.12700
    2    1 UNL  O1     5.98600  -0.25000  -0.12700
    3    1 UNL  C     -0.43400  -0.52200  -0.12900
    4    1 UNL  C1     0.43400   0.52100  -0.12900
    5    1 UNL  C2    -0.01700  -1.97900  -0.18200
    6    1 UNL  C3     0.01700   1.97800  -0.18300
    7    1 UNL  C4    -1.90200  -0.31700  -0.12900
    8    1 UNL  C5     1.90200   0.31700  -0.12900
    9    1 UNL  C6     0.18900  -2.57200   1.20600
   10    1 UNL  C7    -0.18800   2.57200   1.20500
   11    1 UNL  C8    -2.56600  -0.22500  -1.33600
   12    1 UNL  C9     2.56600   0.22400  -1.33700
   13    1 UNL  C10   -2.56500  -0.22500   1.08000
   14    1 UNL  C11    2.56400   0.22600   1.07900
   15    1 UNL  C12   -3.94800  -0.03300  -1.33500
   16    1 UNL  C13    3.94800   0.03200  -1.33500
   17    1 UNL  C14   -3.94600  -0.03300   1.08100
   18    1 UNL  C15    3.94600   0.03400   1.08100
   19    1 UNL  C16   -4.63800   0.06300  -0.12700
   20    1 UNL  C17    4.63800  -0.06300  -0.12700
   21    1 UNL  H      0.90500  -2.10100  -0.76200
   22    1 UNL  H1    -0.76800  -2.57200  -0.71800
   23    1 UNL  H2     0.76800   2.57200  -0.72000
   24    1 UNL  H3    -0.90500   2.10100  -0.76300
   25    1 UNL  H4     0.52100  -3.61200   1.12000
   26    1 UNL  H5    -0.74200  -2.57000   1.78200
   27    1 UNL  H6     0.94300  -2.02800   1.78000
   28    1 UNL  H7    -0.94200   2.02900   1.78000
   29    1 UNL  H8    -0.52100   3.61200   1.11900
   30    1 UNL  H9     0.74300   2.57100   1.78100
   31    1 UNL  H10   -2.03900  -0.29900  -2.28300
   32    1 UNL  H11    2.03900   0.29700  -2.28400
   33    1 UNL  H12   -2.03800  -0.29900   2.02700
   34    1 UNL  H13    2.03700   0.30000   2.02600
   35    1 UNL  H14   -4.47500   0.04000  -2.28300
   36    1 UNL  H15    4.48100  -0.04300  -2.27900
   37    1 UNL  H16   -4.47800   0.04200   2.02500
   38    1 UNL  H17    4.47200  -0.03900   2.02900
   39    1 UNL  H18   -6.29800   0.29300  -1.04700
   40    1 UNL  H19    6.29800  -0.29300   0.79400
Energy ihbfrq 0 inbfrq -1
Open write card unit 14 name tmp.out
Write energy card unit 14
* UNL energy before the optimization
* 
Minimise Abnr Nstep 5000 Tolgrd 0.00001
Write energy card unit 14
* UNL energy after optimization
* 
Write coor card unit 14
* UNL energy after optimization
* 
