* UNL main file generated by charmmgen
* author: Victor Bazterra 2004 CHPC
* 

Read rtf card name ribose_CHARMM.rtf

Read param card name ribose_CHARMM.prm

Read sequence card
* Reading the coordinates of residue
* 
    1
UNL
Generate UNL setup
Read coor card free
* Residues coordinate
* 
   20
    1    1 UNL  O     -0.15100  -1.78300   0.41000
    2    1 UNL  O1     0.27700   1.34900  -1.14500
    3    1 UNL  O2    -2.02900   1.37300   0.50200
    4    1 UNL  O3     2.70200   0.47200  -0.08900
    5    1 UNL  O4    -1.54300  -0.78600  -1.22600
    6    1 UNL  C      0.37000   1.06500   0.25200
    7    1 UNL  C1    -0.95000   0.48600   0.76700
    8    1 UNL  C2     1.47700   0.03400   0.48100
    9    1 UNL  C3    -1.24500  -0.89300   0.16300
   10    1 UNL  C4     1.09300  -1.31700  -0.11600
   11    1 UNL  H      0.61000   2.01400   0.74500
   12    1 UNL  H1    -0.86500   0.38100   1.85600
   13    1 UNL  H2     1.63100  -0.08300   1.56100
   14    1 UNL  H3    -2.13300  -1.31100   0.65000
   15    1 UNL  H4     1.04600  -1.28300  -1.21100
   16    1 UNL  H5     1.86000  -2.06000   0.12900
   17    1 UNL  H6    -0.47300   1.95600  -1.26700
   18    1 UNL  H7    -2.83700   0.96800   0.86100
   19    1 UNL  H8     2.55200   0.61700  -1.03900
   20    1 UNL  H9    -2.10900  -1.54200  -1.45700
Energy ihbfrq 0 inbfrq -1
Open write card unit 14 name tmp.out
Write energy card unit 14
* UNL energy before the optimization
* 
Minimise Abnr Nstep 5000 Tolgrd 0.00001
Write energy card unit 14
* UNL energy after optimization
* 
Write coor card unit 14
* UNL energy after optimization
* 
