* UNL main file generated by charmmgen
* author: Victor Bazterra 2004 CHPC
* 

Read rtf card name lidocaine_CHARMM.rtf

Read param card name lidocaine_CHARMM.prm

Read sequence card
* Reading the coordinates of residue
* 
    1
UNL
Generate UNL setup
Read coor card free
* Residues coordinate
* 
   39
    1    1 UNL  O      0.66600  -0.13400   1.46100
    2    1 UNL  N      3.09400  -0.05100   0.15400
    3    1 UNL  N1    -0.39900  -0.39600  -0.61500
    4    1 UNL  C      1.96500  -0.72600  -0.48400
    5    1 UNL  C1     2.90400   1.39900   0.13100
    6    1 UNL  C2     4.34700  -0.41300  -0.50900
    7    1 UNL  C3    -1.75600  -0.13000  -0.31200
    8    1 UNL  C4     0.68500  -0.38300   0.26000
    9    1 UNL  C5    -2.58600  -1.17400   0.06900
   10    1 UNL  C6    -2.23200   1.16900  -0.40300
   11    1 UNL  C7     4.06900   2.11600   0.79000
   12    1 UNL  C8     4.59200  -1.91100  -0.44000
   13    1 UNL  C9    -3.92300  -0.91200   0.36600
   14    1 UNL  C10   -3.57000   1.43100  -0.10500
   15    1 UNL  C11   -2.08800  -2.57900   0.17100
   16    1 UNL  C12   -1.35100   2.30500  -0.81200
   17    1 UNL  C13   -4.41500   0.39000   0.27900
   18    1 UNL  H      1.88500  -0.45200  -1.54400
   19    1 UNL  H1     2.04000  -1.81600  -0.41400
   20    1 UNL  H2     2.78500   1.77200  -0.89500
   21    1 UNL  H3     2.00900   1.70200   0.68200
   22    1 UNL  H4     4.36900  -0.08100  -1.55500
   23    1 UNL  H5     5.20300   0.04000  -0.00000
   24    1 UNL  H6    -0.25500  -0.80800  -1.53400
   25    1 UNL  H7     4.32400   1.67500   1.75900
   26    1 UNL  H8     4.96200   2.13800   0.15800
   27    1 UNL  H9     3.79600   3.16200   0.97300
   28    1 UNL  H10    4.45200  -2.29900   0.57400
   29    1 UNL  H11    3.95100  -2.47200  -1.12700
   30    1 UNL  H12    5.62500  -2.12700  -0.73300
   31    1 UNL  H13   -4.59600  -1.71100   0.66800
   32    1 UNL  H14   -3.97000   2.43900  -0.16700
   33    1 UNL  H15   -1.65100  -2.90300  -0.78000
   34    1 UNL  H16   -1.33600  -2.66200   0.96200
   35    1 UNL  H17   -2.89500  -3.28100   0.41000
   36    1 UNL  H18   -0.87200   2.09500  -1.77300
   37    1 UNL  H19   -1.91600   3.23600  -0.93100
   38    1 UNL  H20   -0.58100   2.48200  -0.05400
   39    1 UNL  H21   -5.45700   0.59400   0.51100
Energy ihbfrq 0 inbfrq -1
Open write card unit 14 name tmp.out
Write energy card unit 14
* UNL energy before the optimization
* 
Minimise Abnr Nstep 5000 Tolgrd 0.00001
Write energy card unit 14
* UNL energy after optimization
* 
Write coor card unit 14
* UNL energy after optimization
* 
