* UNL main file generated by charmmgen
* author: Victor Bazterra 2004 CHPC
* 

Read rtf card name bisphenol-f_CHARMM.rtf

Read param card name bisphenol-f_CHARMM.prm

Read sequence card
* Reading the coordinates of residue
* 
    1
UNL
Generate UNL setup
Read coor card free
* Residues coordinate
* 
   27
    1    1 UNL  O     -4.73100   0.00000   1.40600
    2    1 UNL  O1     4.72800  -0.00000   1.40600
    3    1 UNL  C     -0.00100   0.00000  -1.67000
    4    1 UNL  C1    -1.25200   0.00000  -0.85700
    5    1 UNL  C2     1.26900  -0.00000  -0.84400
    6    1 UNL  C3    -1.83600   1.20800  -0.47700
    7    1 UNL  C4     1.83400  -1.20800  -0.47700
    8    1 UNL  C5    -1.83600  -1.20800  -0.47700
    9    1 UNL  C6     1.83300   1.20800  -0.47700
   10    1 UNL  C7    -3.00500   1.20800   0.28400
   11    1 UNL  C8     3.00300  -1.20800   0.28400
   12    1 UNL  C9    -3.00500  -1.20800   0.28400
   13    1 UNL  C10    3.00200   1.20800   0.28400
   14    1 UNL  C11   -3.59000  -0.00000   0.66500
   15    1 UNL  C12    3.58700   0.00100   0.66500
   16    1 UNL  H      0.00400  -0.86500  -2.34800
   17    1 UNL  H1     0.00400   0.86500  -2.34900
   18    1 UNL  H2    -1.39200   2.15700  -0.76700
   19    1 UNL  H3     1.38700  -2.15400  -0.76900
   20    1 UNL  H4    -1.39100  -2.15600  -0.76600
   21    1 UNL  H5     1.38500   2.15400  -0.76800
   22    1 UNL  H6    -3.45100   2.15500   0.57400
   23    1 UNL  H7     3.44800  -2.15500   0.57400
   24    1 UNL  H8    -3.45500  -2.15200   0.57800
   25    1 UNL  H9     3.45300   2.15300   0.57800
   26    1 UNL  H10   -4.99500   0.92100   1.57800
   27    1 UNL  H11    4.99200  -0.92100   1.57800
Energy ihbfrq 0 inbfrq -1
Open write card unit 14 name tmp.out
Write energy card unit 14
* UNL energy before the optimization
* 
Minimise Abnr Nstep 5000 Tolgrd 0.00001
Write energy card unit 14
* UNL energy after optimization
* 
Write coor card unit 14
* UNL energy after optimization
* 
