* UNL main file generated by charmmgen
* author: Victor Bazterra 2004 CHPC
* 

Read rtf card name aldosterone_CHARMM.rtf

Read param card name aldosterone_CHARMM.prm

Read sequence card
* Reading the coordinates of residue
* 
    1
UNL
Generate UNL setup
Read coor card free
* Residues coordinate
* 
   54
    1    1 UNL  O     -0.05400   1.50600  -1.87300
    2    1 UNL  O1    -1.86600  -1.09100  -2.06300
    3    1 UNL  O2    -5.08700  -0.37100  -0.22800
    4    1 UNL  O3     5.81500   0.83200   1.78100
    5    1 UNL  O4    -5.98600   2.05800   0.49000
    6    1 UNL  C     -0.87800  -1.06600   0.59300
    7    1 UNL  C1     0.42400  -1.09400  -0.21800
    8    1 UNL  C2    -1.86300   0.00100   0.09900
    9    1 UNL  C3     1.11900   0.31100  -0.08300
   10    1 UNL  C4     2.53300   0.32800  -0.78300
   11    1 UNL  C5     0.15300   1.47000  -0.46600
   12    1 UNL  C6    -1.21700   1.38400   0.24900
   13    1 UNL  C7    -3.06300  -0.27400   1.02400
   14    1 UNL  C8    -1.73100  -2.32800   0.68200
   15    1 UNL  C9     1.33800  -2.24100   0.25900
   16    1 UNL  C10   -3.10100  -1.81200   1.15300
   17    1 UNL  C11    3.32000  -0.82200  -0.14100
   18    1 UNL  C12    2.73600  -2.19500  -0.35600
   19    1 UNL  C13    3.29500   1.66900  -0.58900
   20    1 UNL  C14   -2.29000  -0.19000  -1.34600
   21    1 UNL  C15    2.46100   0.11300  -2.31600
   22    1 UNL  C16   -4.36700   0.27700   0.53000
   23    1 UNL  C17    3.87300   1.84400   0.80400
   24    1 UNL  C18    4.37800  -0.66100   0.67000
   25    1 UNL  C19    4.79400   0.69100   1.11300
   26    1 UNL  C20   -4.73600   1.66200   1.01500
   27    1 UNL  H     -0.59800  -0.82000   1.63100
   28    1 UNL  H1     0.22200  -1.28700  -1.27200
   29    1 UNL  H2     1.30600   0.44700   0.99500
   30    1 UNL  H3     0.60600   2.42700  -0.18600
   31    1 UNL  H4    -1.07000   1.61000   1.31300
   32    1 UNL  H5    -1.87900   2.15600  -0.15900
   33    1 UNL  H6    -2.87600   0.13700   2.02500
   34    1 UNL  H7    -1.31700  -3.05100   1.39300
   35    1 UNL  H8    -1.82200  -2.83700  -0.28300
   36    1 UNL  H9     0.87900  -3.20800   0.02000
   37    1 UNL  H10    1.43100  -2.20200   1.35300
   38    1 UNL  H11   -3.89600  -2.29500   0.57500
   39    1 UNL  H12   -3.26700  -2.08700   2.20200
   40    1 UNL  H13    2.69800  -2.43700  -1.42400
   41    1 UNL  H14    3.35500  -2.97200   0.10800
   42    1 UNL  H15    2.66300   2.52700  -0.83900
   43    1 UNL  H16    4.13500   1.71000  -1.29900
   44    1 UNL  H17   -2.99600   0.55600  -1.75100
   45    1 UNL  H18    2.13200   1.01800  -2.83600
   46    1 UNL  H19    3.45100  -0.13500  -2.72100
   47    1 UNL  H20    1.78700  -0.69500  -2.61100
   48    1 UNL  H21    3.09400   1.89600   1.57000
   49    1 UNL  H22    4.45400   2.77200   0.84100
   50    1 UNL  H23    4.89800  -1.50400   1.11400
   51    1 UNL  H24   -0.61300   2.27600  -2.07000
   52    1 UNL  H25   -3.98600   2.38100   0.68200
   53    1 UNL  H26   -4.79200   1.66900   2.10700
   54    1 UNL  H27   -6.66000   1.46400   0.86200
Energy ihbfrq 0 inbfrq -1
Open write card unit 14 name tmp.out
Write energy card unit 14
* UNL energy before the optimization
* 
Minimise Abnr Nstep 5000 Tolgrd 0.00001
Write energy card unit 14
* UNL energy after optimization
* 
Write coor card unit 14
* UNL energy after optimization
* 
