* UNL main file generated by charmmgen
* author: Victor Bazterra 2004 CHPC
* 

Read rtf card name amoxicillin_CHARMM.rtf

Read param card name amoxicillin_CHARMM.prm

Read sequence card
* Reading the coordinates of residue
* 
    1
UNL
Generate UNL setup
Read coor card free
* Residues coordinate
* 
   44
    1    1 UNL  S      0.81300  -0.53000   1.04700
    2    1 UNL  O      2.54100   1.93800  -2.13800
    3    1 UNL  O1     5.11600  -1.80600  -0.06700
    4    1 UNL  OXT    4.37500  -0.48000   1.63300
    5    1 UNL  O2    -1.18000   2.44400   1.60200
    6    1 UNL  O3    -4.15900  -3.48900   0.08300
    7    1 UNL  N      2.78600   0.75000  -0.11500
    8    1 UNL  N1    -0.15000   1.96900  -0.42000
    9    1 UNL  N2    -3.57200   2.82700   0.27600
   10    1 UNL  C      1.80600   1.00600   0.94200
   11    1 UNL  C1     1.82900  -1.44200  -0.21800
   12    1 UNL  CA     3.12100  -0.62000  -0.42800
   13    1 UNL  C13    1.23500   2.11900   0.04800
   14    1 UNL  C2     2.29500   1.68100  -0.98100
   15    1 UNL  C3     2.07800  -2.87200   0.27400
   16    1 UNL  C4     1.00400  -1.49800  -1.51500
   17    1 UNL  C5     4.24800  -0.93800   0.50700
   18    1 UNL  C6    -1.25800   2.14700   0.41100
   19    1 UNL  C14   -2.58400   1.91400  -0.30600
   20    1 UNL  C7    -3.00600   0.46400  -0.20100
   21    1 UNL  C8    -3.18700  -0.27100  -1.35900
   22    1 UNL  C9    -3.20200  -0.09300   1.05000
   23    1 UNL  C10   -3.57800  -1.60700  -1.26300
   24    1 UNL  C11   -3.59200  -1.42900   1.14700
   25    1 UNL  C12   -3.78000  -2.18500  -0.01000
   26    1 UNL  H      2.25600   1.34000   1.88100
   27    1 UNL  HA     3.47700  -0.66500  -1.46500
   28    1 UNL  H16    1.42100   3.13200   0.42400
   29    1 UNL  H3     1.13900  -3.43000   0.37400
   30    1 UNL  H4     2.70700  -3.42100  -0.43500
   31    1 UNL  H5     2.57600  -2.89600   1.25000
   32    1 UNL  H6     1.56000  -2.02600  -2.29900
   33    1 UNL  H7     0.06000  -2.03700  -1.37000
   34    1 UNL  H8     0.76300  -0.50500  -1.90600
   35    1 UNL  H9    -0.32200   1.71600  -1.39000
   36    1 UNL  H17   -2.46300   2.19600  -1.35900
   37    1 UNL  H10    5.86200  -2.02700   0.53100
   38    1 UNL  H1    -4.45400   2.73700  -0.22900
   39    1 UNL  H2    -3.26900   3.79100   0.13700
   40    1 UNL  H11   -3.03100   0.16800  -2.34000
   41    1 UNL  H12   -3.06600   0.48200   1.96200
   42    1 UNL  H13   -3.72100  -2.19200  -2.16700
   43    1 UNL  H14   -3.74700  -1.86700   2.12900
   44    1 UNL  H15   -4.25300  -3.72400   1.02300
Energy ihbfrq 0 inbfrq -1
Open write card unit 14 name tmp.out
Write energy card unit 14
* UNL energy before the optimization
* 
Minimise Abnr Nstep 5000 Tolgrd 0.00001
Write energy card unit 14
* UNL energy after optimization
* 
Write coor card unit 14
* UNL energy after optimization
* 
