* UNL main file generated by charmmgen
* author: Victor Bazterra 2004 CHPC
* 

Read rtf card name galactose_CHARMM.rtf

Read param card name galactose_CHARMM.prm

Read sequence card
* Reading the coordinates of residue
* 
    1
UNL
Generate UNL setup
Read coor card free
* Residues coordinate
* 
   24
    1    1 UNL  O      0.81700   0.96700  -0.23700
    2    1 UNL  O1     0.35400  -1.66500  -1.24600
    3    1 UNL  O2    -2.05800  -1.99100   0.09700
    4    1 UNL  O3    -2.78100   0.79000   0.42000
    5    1 UNL  O4    -0.82700   2.58400  -0.59600
    6    1 UNL  O5     3.47400   0.61400   0.35900
    7    1 UNL  C      0.28300  -1.37000   0.15000
    8    1 UNL  C1    -1.14800  -0.97900   0.52000
    9    1 UNL  C2     1.23500  -0.21100   0.46500
   10    1 UNL  C3    -1.53900   0.35000  -0.12700
   11    1 UNL  C4    -0.47900   1.41900   0.15100
   12    1 UNL  C5     2.66900  -0.50700   0.04400
   13    1 UNL  H      0.57600  -2.28200   0.68200
   14    1 UNL  H1    -1.23900  -0.90400   1.61100
   15    1 UNL  H2     1.22300   0.01700   1.53900
   16    1 UNL  H3    -1.69700   0.22100  -1.20400
   17    1 UNL  H4    -0.47600   1.69900   1.21200
   18    1 UNL  H5     2.75400  -0.67600  -1.03400
   19    1 UNL  H6     3.06500  -1.38100   0.57000
   20    1 UNL  H7     0.24600  -0.83400  -1.74000
   21    1 UNL  H8    -2.95400  -1.69500   0.33300
   22    1 UNL  H9    -2.99300   1.64600   0.00800
   23    1 UNL  H10   -0.42500   3.34400  -0.14200
   24    1 UNL  H11    3.10700   1.38200  -0.11100
Energy ihbfrq 0 inbfrq -1
Open write card unit 14 name tmp.out
Write energy card unit 14
* UNL energy before the optimization
* 
Minimise Abnr Nstep 5000 Tolgrd 0.00001
Write energy card unit 14
* UNL energy after optimization
* 
Write coor card unit 14
* UNL energy after optimization
* 
