* U1 main file generated by charmmgen
* author: Victor Bazterra 2004 CHPC
* 

Read rtf card name uridine_CHARMM.rtf

Read param card name uridine_CHARMM.prm

Read sequence card
* Reading the coordinates of residue
* 
    1
 U1
Generate  U1 setup
Read coor card free
* Residues coordinate
* 
   29
    1    1 U1   O4*   -1.36500  -0.54100   1.02200
    2    1 U1   O2*   -1.24300   2.34700  -1.10100
    3    1 U1   O3*   -3.40900   1.54700   0.35000
    4    1 U1   O5*   -2.32100  -3.07300   0.28800
    5    1 U1   O2     1.54100   2.34800   0.70900
    6    1 U1   O4     4.54900  -0.96300  -0.40100
    7    1 U1   N1     0.71300   0.21000   0.25900
    8    1 U1   N3     3.03700   0.69800   0.15600
    9    1 U1   C2*   -1.36700   0.97100  -0.80200
   10    1 U1   C3*   -2.79700   0.57600  -0.49900
   11    1 U1   C1*   -0.65400   0.58500   0.48200
   12    1 U1   C4*   -2.61000  -0.70100   0.30800
   13    1 U1   C5*   -2.50300  -1.95000  -0.55700
   14    1 U1   C2     1.74100   1.17200   0.39800
   15    1 U1   C6     1.02500  -1.09800  -0.09400
   16    1 U1   C5     2.26500  -1.53500  -0.32200
   17    1 U1   C4     3.39700  -0.59400  -0.19800
   18    1 U1   H2*   -0.99900   0.39600  -1.66000
   19    1 U1   H3*   -3.42400   0.46700  -1.38700
   20    1 U1   H1*   -0.69000   1.39600   1.21900
   21    1 U1   H4*   -3.39200  -0.83600   1.06400
   22    1 U1   H5*1  -1.66800  -1.90700  -1.26100
   23    1 U1   H5*2  -3.42700  -2.09500  -1.12600
   24    1 U1   H7    -0.29500   2.53900  -1.20000
   25    1 U1   H8    -2.92700   1.58100   1.19300
   26    1 U1   H6     0.21300  -1.80400  -0.18700
   27    1 U1   H5*   -2.26800  -3.85700  -0.28500
   28    1 U1   H3     3.79200   1.37200   0.25000
   29    1 U1   H5     2.47100  -2.56300  -0.59400
Energy ihbfrq 0 inbfrq -1
Open write card unit 14 name tmp.out
Write energy card unit 14
* U1 energy before the optimization
* 
Minimise Abnr Nstep 5000 Tolgrd 0.00001
Write energy card unit 14
* U1 energy after optimization
* 
Write coor card unit 14
* U1 energy after optimization
* 
