* UNL main file generated by charmmgen
* author: Victor Bazterra 2004 CHPC
* 

Read rtf card name stigmasterol_CHARMM.rtf

Read param card name stigmasterol_CHARMM.prm

Read sequence card
* Reading the coordinates of residue
* 
    1
UNL
Generate UNL setup
Read coor card free
* Residues coordinate
* 
   78
    1    1 UNL  O      8.41500  -0.15000   0.40200
    2    1 UNL  C     -0.27700   0.54100  -0.24000
    3    1 UNL  C1     0.44600  -0.73000   0.24800
    4    1 UNL  C2     1.89600  -0.82700  -0.23900
    5    1 UNL  C3     2.68900   0.42400   0.23900
    6    1 UNL  C4    -1.67700   0.27900   0.36600
    7    1 UNL  C5     0.46400   1.74900   0.35100
    8    1 UNL  C6     4.18500   0.39100  -0.27200
    9    1 UNL  C7    -0.52300  -1.85500  -0.10100
   10    1 UNL  C8     1.94700   1.75600  -0.06000
   11    1 UNL  C9    -1.91500  -1.22600   0.09900
   12    1 UNL  C10    2.56100  -2.10700   0.28700
   13    1 UNL  C11   -0.35100   0.67200  -1.78200
   14    1 UNL  C12    4.79300  -1.00700  -0.08800
   15    1 UNL  C13   -2.81300   1.15700  -0.13800
   16    1 UNL  C14    5.00800   1.41800   0.56100
   17    1 UNL  C15    4.05200  -2.09800   0.17300
   18    1 UNL  C16    4.27600   0.75700  -1.77300
   19    1 UNL  C17    6.29500  -1.12700  -0.20500
   20    1 UNL  C18    6.52100   1.31200   0.37500
   21    1 UNL  C19    7.01600  -0.10000   0.66500
   22    1 UNL  C20   -2.52600   2.63300   0.14700
   23    1 UNL  C21   -4.11700   0.75000   0.50500
   24    1 UNL  C22   -5.18300   0.31100  -0.18100
   25    1 UNL  C23   -6.49300  -0.09100   0.46500
   26    1 UNL  C24   -6.84800  -1.58900   0.22900
   27    1 UNL  C25   -7.58800   0.89200  -0.00600
   28    1 UNL  C26   -5.82300  -2.57500   0.80000
   29    1 UNL  C27   -7.07500  -1.88900  -1.26000
   30    1 UNL  C28   -7.35500   2.33000   0.43400
   31    1 UNL  H      0.48900  -0.69800   1.35000
   32    1 UNL  H1     1.90900  -0.87300  -1.33300
   33    1 UNL  H2     2.72500   0.35300   1.33800
   34    1 UNL  H3    -1.60500   0.40100   1.45900
   35    1 UNL  H4     0.40300   1.73400   1.44700
   36    1 UNL  H5     0.04400   2.70200   0.02700
   37    1 UNL  H6    -0.38500  -2.72900   0.54300
   38    1 UNL  H7    -0.39900  -2.18400  -1.13900
   39    1 UNL  H8     2.00600   1.99800  -1.12500
   40    1 UNL  H9     2.44000   2.57900   0.46900
   41    1 UNL  H10   -2.52500  -1.40100  -0.79500
   42    1 UNL  H11   -2.43000  -1.69200   0.94600
   43    1 UNL  H12    2.17200  -2.96800  -0.27000
   44    1 UNL  H13    2.30600  -2.27100   1.34200
   45    1 UNL  H14    0.63400   0.63600  -2.25500
   46    1 UNL  H15   -0.94600  -0.12500  -2.24000
   47    1 UNL  H16   -0.80000   1.62500  -2.08000
   48    1 UNL  H17   -2.92200   1.04500  -1.22400
   49    1 UNL  H18    4.79100   1.28200   1.63000
   50    1 UNL  H19    4.70400   2.44200   0.31300
   51    1 UNL  H20    4.54200  -3.05800   0.31500
   52    1 UNL  H21    5.29000   0.64200  -2.16900
   53    1 UNL  H22    3.62400   0.12700  -2.38600
   54    1 UNL  H23    3.99900   1.80100  -1.95100
   55    1 UNL  H24    6.64500  -2.13000   0.07300
   56    1 UNL  H25    6.59200  -1.00700  -1.25500
   57    1 UNL  H26    6.80500   1.61600  -0.64000
   58    1 UNL  H27    7.02700   2.02100   1.04200
   59    1 UNL  H28    6.87000  -0.33700   1.72500
   60    1 UNL  H29   -1.86200   3.06600  -0.60400
   61    1 UNL  H30   -3.45000   3.22300   0.09000
   62    1 UNL  H31   -2.10900   2.79000   1.14700
   63    1 UNL  H32   -4.17600   0.82300   1.58900
   64    1 UNL  H33   -5.12200   0.25200  -1.26500
   65    1 UNL  H34    8.55200   0.05000  -0.54000
   66    1 UNL  H35   -6.40100   0.03200   1.55400
   67    1 UNL  H36   -7.79700  -1.78100   0.74700
   68    1 UNL  H37   -7.68200   0.88000  -1.09800
   69    1 UNL  H38   -8.55400   0.56300   0.39700
   70    1 UNL  H39   -5.64100  -2.37200   1.86000
   71    1 UNL  H40   -4.86700  -2.51500   0.27100
   72    1 UNL  H41   -6.18800  -3.60400   0.71400
   73    1 UNL  H42   -6.16800  -1.74000  -1.85500
   74    1 UNL  H43   -7.87300  -1.27300  -1.68200
   75    1 UNL  H44   -7.38000  -2.93300  -1.39000
   76    1 UNL  H45   -7.23400   2.39500   1.52000
   77    1 UNL  H46   -6.46900   2.76200  -0.04000
   78    1 UNL  H47   -8.21300   2.95100   0.15300
Energy ihbfrq 0 inbfrq -1
Open write card unit 14 name tmp.out
Write energy card unit 14
* UNL energy before the optimization
* 
Minimise Abnr Nstep 5000 Tolgrd 0.00001
Write energy card unit 14
* UNL energy after optimization
* 
Write coor card unit 14
* UNL energy after optimization
* 
