* UNL main file generated by charmmgen
* author: Victor Bazterra 2004 CHPC
* 

Read rtf card name estradiol_CHARMM.rtf

Read param card name estradiol_CHARMM.prm

Read sequence card
* Reading the coordinates of residue
* 
    1
UNL
Generate UNL setup
Read coor card free
* Residues coordinate
* 
   44
    1    1 UNL  O      5.06100   1.15000   0.26700
    2    1 UNL  O1    -5.85700   0.14800   0.43900
    3    1 UNL  C      2.66400   0.58400   0.14800
    4    1 UNL  C1     1.98400  -0.69500  -0.37900
    5    1 UNL  C2     0.51500  -0.78000   0.03500
    6    1 UNL  C3    -0.24600   0.43600  -0.57500
    7    1 UNL  C4     4.09500   0.33500  -0.36700
    8    1 UNL  C5     1.95500   1.79300  -0.47500
    9    1 UNL  C6     2.94400  -1.80600   0.03800
   10    1 UNL  C7     0.44000   1.77600  -0.19500
   11    1 UNL  C8     4.33700  -1.16100  -0.08800
   12    1 UNL  C9    -0.15400  -2.07300  -0.43500
   13    1 UNL  C10    2.66500   0.73100   1.69100
   14    1 UNL  C11   -1.74000   0.36400  -0.26700
   15    1 UNL  C12   -1.56900  -2.15900   0.13100
   16    1 UNL  C13   -2.35300  -0.87400   0.02200
   17    1 UNL  C14   -2.55500   1.50600  -0.35100
   18    1 UNL  C15   -3.73700  -0.93000   0.26900
   19    1 UNL  C16   -3.92900   1.43600  -0.11200
   20    1 UNL  C17   -4.52000   0.21900   0.20300
   21    1 UNL  H      2.00400  -0.67500  -1.48200
   22    1 UNL  H1     0.44000  -0.75000   1.13000
   23    1 UNL  H2    -0.17800   0.35400  -1.67100
   24    1 UNL  H3     4.15300   0.52000  -1.44700
   25    1 UNL  H4     2.10500   1.79400  -1.56300
   26    1 UNL  H5     2.38800   2.73000  -0.10500
   27    1 UNL  H6     2.85500  -2.68800  -0.60400
   28    1 UNL  H7     2.76300  -2.12700   1.07000
   29    1 UNL  H8     0.25200   2.00300   0.86100
   30    1 UNL  H9     0.00100   2.60100  -0.76700
   31    1 UNL  H10    4.92300  -1.32100   0.82400
   32    1 UNL  H11    4.90100  -1.61000  -0.91200
   33    1 UNL  H12    0.41000  -2.95400  -0.11100
   34    1 UNL  H13   -0.18900  -2.10100  -1.53200
   35    1 UNL  H14    3.16800   1.65900   1.99000
   36    1 UNL  H15    1.65800   0.77000   2.11400
   37    1 UNL  H16    3.18800  -0.09100   2.19000
   38    1 UNL  H17   -1.51200  -2.42900   1.19300
   39    1 UNL  H18   -2.10300  -2.96600  -0.38500
   40    1 UNL  H19    5.93600   0.86800  -0.05200
   41    1 UNL  H20   -2.14000   2.47500  -0.61200
   42    1 UNL  H21   -4.20400  -1.88100   0.51400
   43    1 UNL  H22   -4.52600   2.34200  -0.18000
   44    1 UNL  H23   -6.24100   1.03800   0.34900
Energy ihbfrq 0 inbfrq -1
Open write card unit 14 name tmp.out
Write energy card unit 14
* UNL energy before the optimization
* 
Minimise Abnr Nstep 5000 Tolgrd 0.00001
Write energy card unit 14
* UNL energy after optimization
* 
Write coor card unit 14
* UNL energy after optimization
* 
