* UNL main file generated by charmmgen
* author: Victor Bazterra 2004 CHPC
* 

Read rtf card name warfarin_CHARMM.rtf

Read param card name warfarin_CHARMM.prm

Read sequence card
* Reading the coordinates of residue
* 
    1
UNL
Generate UNL setup
Read coor card free
* Residues coordinate
* 
   39
    1    1 UNL  O     -2.09200   0.50900   1.65500
    2    1 UNL  O1    -0.15400  -0.73200  -1.84100
    3    1 UNL  O2    -0.15900   1.41700   2.43800
    4    1 UNL  O3     0.61100   3.43800   0.38000
    5    1 UNL  C      1.42300   0.72100   0.26700
    6    1 UNL  C1    -0.03900   0.36800   0.30400
    7    1 UNL  C2     1.71700   1.69600  -0.89000
    8    1 UNL  C3     2.28700  -0.53000   0.21400
    9    1 UNL  C4    -0.71200  -0.29000  -0.65900
   10    1 UNL  C5    -2.13800  -0.59100  -0.51100
   11    1 UNL  C6    -0.74200   0.81000   1.54400
   12    1 UNL  C7     1.23400   3.11700  -0.63100
   13    1 UNL  C8     2.63700  -1.18700   1.39400
   14    1 UNL  C9     2.72900  -1.02000  -1.01500
   15    1 UNL  C10   -2.78800  -0.18100   0.64800
   16    1 UNL  C11   -2.88900  -1.27500  -1.47700
   17    1 UNL  C12    3.42900  -2.33400   1.34500
   18    1 UNL  C13    3.52200  -2.16700  -1.06300
   19    1 UNL  C14   -4.14300  -0.42800   0.86900
   20    1 UNL  C15    1.52000   4.12300  -1.71600
   21    1 UNL  C16    3.87200  -2.82400   0.11700
   22    1 UNL  C17   -4.24900  -1.53100  -1.27100
   23    1 UNL  C18   -4.87500  -1.10800  -0.10000
   24    1 UNL  H      1.73600   1.24400   1.17900
   25    1 UNL  H1     1.27900   1.37500  -1.84100
   26    1 UNL  H2     2.80200   1.77900  -1.03400
   27    1 UNL  H3     2.29800  -0.81600   2.35700
   28    1 UNL  H4     2.48200  -0.54100  -1.95600
   29    1 UNL  H5    -2.44800  -1.64000  -2.40000
   30    1 UNL  H6     3.70200  -2.84500   2.26400
   31    1 UNL  H7     3.86600  -2.55000  -2.02000
   32    1 UNL  H8    -4.62700  -0.09700   1.78300
   33    1 UNL  H9     2.59600   4.17100  -1.89800
   34    1 UNL  H10    1.17300   5.11200  -1.40300
   35    1 UNL  H11    0.99500   3.83400  -2.63000
   36    1 UNL  H12    4.48900  -3.71700   0.07900
   37    1 UNL  H13   -4.81900  -2.06500  -2.02700
   38    1 UNL  H14   -0.77200  -0.55200  -2.56800
   39    1 UNL  H15   -5.93100  -1.31000   0.05600
Energy ihbfrq 0 inbfrq -1
Open write card unit 14 name tmp.out
Write energy card unit 14
* UNL energy before the optimization
* 
Minimise Abnr Nstep 5000 Tolgrd 0.00001
Write energy card unit 14
* UNL energy after optimization
* 
Write coor card unit 14
* UNL energy after optimization
* 
