* UNL main file generated by charmmgen
* author: Victor Bazterra 2004 CHPC
* 

Read rtf card name lanosterol_CHARMM.rtf

Read param card name lanosterol_CHARMM.prm

Read sequence card
* Reading the coordinates of residue
* 
    1
UNL
Generate UNL setup
Read coor card free
* Residues coordinate
* 
   81
    1    1 UNL  O     -6.47600   1.41400   0.01300
    2    1 UNL  C      1.11200   0.62000   0.43700
    3    1 UNL  C1     0.46500  -0.75000   0.03500
    4    1 UNL  C2     2.62200   0.28900   0.34600
    5    1 UNL  C3    -3.25600   0.58600  -0.09400
    6    1 UNL  C4    -1.05100  -0.66900   0.17200
    7    1 UNL  C5    -3.90800  -0.84100  -0.10600
    8    1 UNL  C6    -1.70300   0.47800  -0.15400
    9    1 UNL  C7     1.27300  -1.70800   0.93600
   10    1 UNL  C8     0.61100   1.69000  -0.53300
   11    1 UNL  C9     2.71000  -1.14100   0.93100
   12    1 UNL  C10   -0.93100   1.75400  -0.54300
   13    1 UNL  C11   -5.48900  -0.88100  -0.07300
   14    1 UNL  C12   -1.75500  -1.92700   0.61600
   15    1 UNL  C13   -3.23900  -1.75600   0.92700
   16    1 UNL  C14   -3.81000   1.37100  -1.32300
   17    1 UNL  C15    3.58300   1.26100   1.02000
   18    1 UNL  C16    0.76400   1.07500   1.89100
   19    1 UNL  C17    0.71100  -1.19700  -1.44000
   20    1 UNL  C18   -6.10500   0.33400  -0.83900
   21    1 UNL  C19   -5.15000   0.88300  -1.89100
   22    1 UNL  C20   -3.55200   1.36600   1.21100
   23    1 UNL  C21   -5.93100  -2.16500  -0.83400
   24    1 UNL  C22   -6.07400  -1.00900   1.34900
   25    1 UNL  C23    5.06000   0.84300   0.85600
   26    1 UNL  C24    3.38700   2.66800   0.44300
   27    1 UNL  C25    5.57000   0.79000  -0.59100
   28    1 UNL  C26    7.02800   0.43500  -0.68000
   29    1 UNL  C27    7.59200  -0.78800  -0.68800
   30    1 UNL  C28    9.08700  -0.93400  -0.79100
   31    1 UNL  C29    6.85100  -2.09200  -0.60000
   32    1 UNL  H      2.88700   0.24000  -0.71600
   33    1 UNL  H1    -3.62800  -1.26700  -1.08500
   34    1 UNL  H2     1.25700  -2.74500   0.58300
   35    1 UNL  H3     0.88800  -1.71700   1.96200
   36    1 UNL  H4     0.97200   1.49300  -1.55000
   37    1 UNL  H5     0.96200   2.69500  -0.29400
   38    1 UNL  H6     3.11000  -1.15600   1.95100
   39    1 UNL  H7     3.36600  -1.76200   0.31100
   40    1 UNL  H8    -1.23000   2.09000  -1.54000
   41    1 UNL  H9    -1.22400   2.55100   0.15100
   42    1 UNL  H10   -1.64300  -2.68200  -0.17200
   43    1 UNL  H11   -1.27900  -2.33500   1.51400
   44    1 UNL  H12   -3.70000  -2.75000   0.93500
   45    1 UNL  H13   -3.35600  -1.35300   1.93900
   46    1 UNL  H14   -3.10600   1.31900  -2.16300
   47    1 UNL  H15   -3.89700   2.43700  -1.07500
   48    1 UNL  H16    3.39500   1.30500   2.09900
   49    1 UNL  H17   -0.31100   1.06700   2.09300
   50    1 UNL  H18    1.22300   0.43500   2.65100
   51    1 UNL  H19    1.09900   2.09700   2.09000
   52    1 UNL  H20    0.23900  -0.52700  -2.16700
   53    1 UNL  H21    1.77100  -1.26700  -1.70000
   54    1 UNL  H22    0.28900  -2.19500  -1.61400
   55    1 UNL  H23   -7.03200   0.02100  -1.33400
   56    1 UNL  H24   -5.61700   1.71800  -2.42800
   57    1 UNL  H25   -4.95700   0.10700  -2.64200
   58    1 UNL  H26   -3.13600   2.37900   1.18100
   59    1 UNL  H27   -4.61400   1.49500   1.40500
   60    1 UNL  H28   -3.11900   0.87400   2.08900
   61    1 UNL  H29   -7.02300  -2.26300  -0.84000
   62    1 UNL  H30   -5.52800  -3.07200  -0.37100
   63    1 UNL  H31   -5.59900  -2.15000  -1.87800
   64    1 UNL  H32   -7.16900  -0.97000   1.32100
   65    1 UNL  H33   -5.73600  -0.21400   2.01700
   66    1 UNL  H34   -5.80400  -1.96300   1.81700
   67    1 UNL  H35    5.21600  -0.13300   1.33200
   68    1 UNL  H36    5.68400   1.54600   1.42400
   69    1 UNL  H37    3.26900   2.66600  -0.64500
   70    1 UNL  H38    2.54500   3.18600   0.90400
   71    1 UNL  H39    4.25800   3.29700   0.66900
   72    1 UNL  H40   -6.88600   2.10100  -0.53900
   73    1 UNL  H41    5.43500   1.76000  -1.08300
   74    1 UNL  H42    4.99300   0.07200  -1.18200
   75    1 UNL  H43    7.68900   1.30000  -0.73500
   76    1 UNL  H44    9.59800   0.03200  -0.85600
   77    1 UNL  H45    9.47900  -1.45800   0.08700
   78    1 UNL  H46    9.35100  -1.50900  -1.68500
   79    1 UNL  H47    7.18800  -2.66000   0.27300
   80    1 UNL  H48    5.77000  -1.96100  -0.50800
   81    1 UNL  H49    7.03600  -2.69300  -1.49700
Energy ihbfrq 0 inbfrq -1
Open write card unit 14 name tmp.out
Write energy card unit 14
* UNL energy before the optimization
* 
Minimise Abnr Nstep 5000 Tolgrd 0.00001
Write energy card unit 14
* UNL energy after optimization
* 
Write coor card unit 14
* UNL energy after optimization
* 
