* UNL main file generated by charmmgen
* author: Victor Bazterra 2004 CHPC
* 

Read rtf card name celecoxib_CHARMM.rtf

Read param card name celecoxib_CHARMM.prm

Read sequence card
* Reading the coordinates of residue
* 
    1
UNL
Generate UNL setup
Read coor card free
* Residues coordinate
* 
   40
    1    1 UNL  S      4.76800  -1.61900  -0.05400
    2    1 UNL  F     -5.47700  -1.14100   0.05900
    3    1 UNL  F1    -4.44000  -2.72000  -1.01800
    4    1 UNL  F2    -4.39100  -2.67700   1.16100
    5    1 UNL  O      5.07000  -2.50600  -1.16900
    6    1 UNL  O1     5.45900  -0.34300   0.06400
    7    1 UNL  N     -1.06400  -0.60900   0.00100
    8    1 UNL  N1    -1.91500  -1.64900   0.02300
    9    1 UNL  N2     4.96100  -2.48500   1.40700
   10    1 UNL  C     -1.67900   0.61000  -0.00700
   11    1 UNL  C1     0.31200  -0.84800  -0.01200
   12    1 UNL  C2    -0.98900   1.87600  -0.03000
   13    1 UNL  C3    -3.02800   0.34500   0.01100
   14    1 UNL  C4    -3.11300  -1.06000   0.02900
   15    1 UNL  C5     1.17100   0.07400   0.57100
   16    1 UNL  C6     0.80000  -2.00200  -0.60800
   17    1 UNL  C7     3.04700  -1.32100  -0.03800
   18    1 UNL  C8    -0.64200   2.50300   1.16700
   19    1 UNL  C9    -0.66800   2.47400  -1.24900
   20    1 UNL  C10    2.54600  -0.16400   0.55800
   21    1 UNL  C11    2.17500  -2.24000  -0.62100
   22    1 UNL  C12    0.34600   4.32500  -0.07400
   23    1 UNL  C13    0.02600   3.72800   1.14500
   24    1 UNL  C14   -0.00100   3.69900  -1.27100
   25    1 UNL  C15   -4.33300  -1.88400   0.05400
   26    1 UNL  C16    1.05900   5.63500  -0.09900
   27    1 UNL  H     -3.83400   1.06600   0.01200
   28    1 UNL  H1     0.88200   0.88300   1.20900
   29    1 UNL  H2     0.14700  -2.73200  -1.08000
   30    1 UNL  H3    -0.90000   2.06200   2.12700
   31    1 UNL  H4    -0.93100   1.99800  -2.19100
   32    1 UNL  H5     3.20500   0.54100   1.05700
   33    1 UNL  H6     2.54300  -3.14900  -1.08700
   34    1 UNL  H7     0.28900   4.20700   2.08400
   35    1 UNL  H8     0.24500   4.15300  -2.22700
   36    1 UNL  H9     0.77600   6.22200  -0.97900
   37    1 UNL  H10    0.81000   6.23800   0.78100
   38    1 UNL  H11    2.14100   5.47300  -0.11800
   39    1 UNL  H12    5.17200  -3.48800   1.34200
   40    1 UNL  H13    5.43600  -2.00900   2.18300
Energy ihbfrq 0 inbfrq -1
Open write card unit 14 name tmp.out
Write energy card unit 14
* UNL energy before the optimization
* 
Minimise Abnr Nstep 5000 Tolgrd 0.00001
Write energy card unit 14
* UNL energy after optimization
* 
Write coor card unit 14
* UNL energy after optimization
* 
