* UNL main file generated by charmmgen
* author: Victor Bazterra 2004 CHPC
* 

Read rtf card name paracetamol_CHARMM.rtf

Read param card name paracetamol_CHARMM.prm

Read sequence card
* Reading the coordinates of residue
* 
    1
UNL
Generate UNL setup
Read coor card free
* Residues coordinate
* 
   20
    1    1 UNL  O      3.85100   0.45200   0.00100
    2    1 UNL  O1    -2.60000   1.40400  -0.00200
    3    1 UNL  N     -1.57100  -0.71700   0.00000
    4    1 UNL  C     -0.20700  -0.42300  -0.00000
    5    1 UNL  C1     0.22100   0.90500   0.00000
    6    1 UNL  C2     0.73000  -1.45700  -0.00100
    7    1 UNL  C3     1.58400   1.19900   0.00000
    8    1 UNL  C4     2.09300  -1.16300  -0.00100
    9    1 UNL  C5     2.52000   0.16500  -0.00000
   10    1 UNL  C6    -2.64800   0.17800   0.00100
   11    1 UNL  C7    -3.97400  -0.54200   0.00100
   12    1 UNL  H     -0.44400   1.75800   0.00100
   13    1 UNL  H1     0.41100  -2.49600  -0.00100
   14    1 UNL  H2    -1.80100  -1.70900   0.00000
   15    1 UNL  H3     1.90500   2.23700   0.00100
   16    1 UNL  H4     2.81800  -1.97300  -0.00100
   17    1 UNL  H5    -4.06600  -1.14600  -0.90600
   18    1 UNL  H6    -4.79000   0.18400   0.02900
   19    1 UNL  H7    -4.04500  -1.18900   0.88000
   20    1 UNL  H8     3.96500   1.41800   0.00200
Energy ihbfrq 0 inbfrq -1
Open write card unit 14 name tmp.out
Write energy card unit 14
* UNL energy before the optimization
* 
Minimise Abnr Nstep 5000 Tolgrd 0.00001
Write energy card unit 14
* UNL energy after optimization
* 
Write coor card unit 14
* UNL energy after optimization
* 
