* A1 main file generated by charmmgen
* author: Victor Bazterra 2004 CHPC
* 

Read rtf card name adenosine_CHARMM.rtf

Read param card name adenosine_CHARMM.prm

Read sequence card
* Reading the coordinates of residue
* 
    1
 A1
Generate  A1 setup
Read coor card free
* Residues coordinate
* 
   32
    1    1 A1   O4*    2.00000  -0.52000  -0.95200
    2    1 A1   O2*    1.20800   2.26500   1.17700
    3    1 A1   O3*    3.40100   2.13500  -0.42300
    4    1 A1   O5*    3.78900  -2.60300  -0.38400
    5    1 A1   N9    -0.21300  -0.25900  -0.13800
    6    1 A1   N7    -1.64000  -1.89100   0.39100
    7    1 A1   N3    -1.78500   1.54700  -0.55100
    8    1 A1   N1    -4.08900   0.81200  -0.22100
    9    1 A1   N6    -4.64400  -1.42300   0.42900
   10    1 A1   C2*    1.71700   0.98800   0.85200
   11    1 A1   C1*    1.05800   0.41500  -0.39400
   12    1 A1   C3*    3.17400   1.01700   0.43500
   13    1 A1   C4*    3.30400  -0.26400  -0.38300
   14    1 A1   C5*    3.70500  -1.46700   0.45900
   15    1 A1   C4    -1.46400   0.28700  -0.22000
   16    1 A1   C8    -0.37300  -1.56900   0.23200
   17    1 A1   C5    -2.33300  -0.74000   0.11200
   18    1 A1   C6    -3.69200  -0.44200   0.10400
   19    1 A1   C2    -3.12500   1.71500  -0.52400
   20    1 A1   H2*    1.58100   0.32600   1.71500
   21    1 A1   H1*    0.86200   1.18300  -1.15200
   22    1 A1   H3*    3.86600   1.09600   1.27800
   23    1 A1   H4*    3.99700  -0.15200  -1.22500
   24    1 A1   H5*1   2.97100  -1.68600   1.24000
   25    1 A1   H5*2   4.68200  -1.31300   0.92700
   26    1 A1   H7     1.38100   2.85800   0.42600
   27    1 A1   H9     4.33000   2.09800  -0.70900
   28    1 A1   H8     0.46300  -2.24100   0.37700
   29    1 A1   H5*    2.91700  -2.72800  -0.79500
   30    1 A1   H2    -3.47900   2.70800  -0.78000
   31    1 A1   H61   -4.35000  -2.36000   0.67300
   32    1 A1   H62   -5.62500  -1.18200   0.41700
Energy ihbfrq 0 inbfrq -1
Open write card unit 14 name tmp.out
Write energy card unit 14
* A1 energy before the optimization
* 
Minimise Abnr Nstep 5000 Tolgrd 0.00001
Write energy card unit 14
* A1 energy after optimization
* 
Write coor card unit 14
* A1 energy after optimization
* 
