* UNL main file generated by charmmgen
* author: Victor Bazterra 2004 CHPC
* 

Read rtf card name propranolol_CHARMM.rtf

Read param card name propranolol_CHARMM.prm

Read sequence card
* Reading the coordinates of residue
* 
    1
UNL
Generate UNL setup
Read coor card free
* Residues coordinate
* 
   40
    1    1 UNL  O      0.35800   1.45600   0.69300
    2    1 UNL  O1     2.78400   2.10300   1.95600
    3    1 UNL  N      3.00100  -0.42900  -0.73600
    4    1 UNL  C      2.75100   1.64100   0.60300
    5    1 UNL  C1     2.95800   0.12400   0.61100
    6    1 UNL  C2     3.25600  -1.86300  -0.70200
    7    1 UNL  C3     1.42600   2.06500  -0.02600
    8    1 UNL  C4     3.28700  -2.42900  -2.11900
    9    1 UNL  C5     2.18400  -2.55000   0.13900
   10    1 UNL  C6    -0.78500   1.18800  -0.00600
   11    1 UNL  C7    -1.61400   0.10700   0.33600
   12    1 UNL  C8    -2.78700  -0.13000  -0.41900
   13    1 UNL  C9    -1.10800   2.02300  -1.07600
   14    1 UNL  C10   -1.30400  -0.74400   1.40900
   15    1 UNL  C11   -3.09700   0.72100  -1.49300
   16    1 UNL  C12   -2.26200   1.79000  -1.81800
   17    1 UNL  C13   -3.61600  -1.21100  -0.07800
   18    1 UNL  C14   -2.13900  -1.81300   1.73400
   19    1 UNL  C15   -3.29300  -2.04600   0.99100
   20    1 UNL  H      3.58000   2.12500   0.07400
   21    1 UNL  H1     2.15500  -0.30500   1.21800
   22    1 UNL  H2     3.89400  -0.09300   1.14300
   23    1 UNL  H3     4.23700  -2.05600  -0.24900
   24    1 UNL  H4     3.72600   0.03800  -1.28000
   25    1 UNL  H5     1.43800   1.77600  -1.08500
   26    1 UNL  H6     1.31500   3.15300   0.05400
   27    1 UNL  H7     3.50200  -3.50300  -2.10400
   28    1 UNL  H8     2.32700  -2.28500  -2.62800
   29    1 UNL  H9     4.06500  -1.94400  -2.71900
   30    1 UNL  H10    2.32000  -2.38600   1.21300
   31    1 UNL  H11    2.22900  -3.63600  -0.00500
   32    1 UNL  H12    1.17400  -2.23200  -0.14500
   33    1 UNL  H13    2.68800   3.07000   1.93800
   34    1 UNL  H14   -0.51200   2.88900  -1.34800
   35    1 UNL  H15   -0.41000  -0.59000   2.00900
   36    1 UNL  H16   -3.99500   0.55800  -2.08600
   37    1 UNL  H17   -2.51800   2.44500  -2.64600
   38    1 UNL  H18   -4.52300  -1.41300  -0.64500
   39    1 UNL  H19   -1.88800  -2.46400   2.56600
   40    1 UNL  H20   -3.94300  -2.87900   1.24500
Energy ihbfrq 0 inbfrq -1
Open write card unit 14 name tmp.out
Write energy card unit 14
* UNL energy before the optimization
* 
Minimise Abnr Nstep 5000 Tolgrd 0.00001
Write energy card unit 14
* UNL energy after optimization
* 
Write coor card unit 14
* UNL energy after optimization
* 
