* UNL main file generated by charmmgen
* author: Victor Bazterra 2004 CHPC
* 

Read rtf card name sucrose_CHARMM.rtf

Read param card name sucrose_CHARMM.prm

Read sequence card
* Reading the coordinates of residue
* 
    1
UNL
Generate UNL setup
Read coor card free
* Residues coordinate
* 
   45
    1    1 UNL  O     -1.46800   0.43900  -0.91800
    2    1 UNL  O1    -0.60300  -0.89200   0.81200
    3    1 UNL  O2     0.92800   0.48300  -0.30500
    4    1 UNL  O3    -3.07000  -2.00500   1.19300
    5    1 UNL  O4    -4.62000   0.63200   0.73300
    6    1 UNL  O5     1.22300   0.21600   2.56600
    7    1 UNL  O6     3.61100  -1.72900   0.63800
    8    1 UNL  O7     3.15000   1.83500   1.15400
    9    1 UNL  O8    -1.95800  -1.84800  -2.43000
   10    1 UNL  O9    -1.38500   3.24500  -0.89300
   11    1 UNL  O10    3.83700   0.20600  -2.50400
   12    1 UNL  C     -1.49500  -0.86300  -0.30400
   13    1 UNL  C1    -2.93000  -1.02300   0.18700
   14    1 UNL  C2    -3.22900   0.37400   0.68900
   15    1 UNL  C3    -2.55000   1.22400  -0.37900
   16    1 UNL  C4     0.75300  -0.74500   0.39700
   17    1 UNL  C5     1.64600  -0.78500   1.63900
   18    1 UNL  C6     3.11500  -0.55500   1.27500
   19    1 UNL  C7     3.29200   0.65800   0.35200
   20    1 UNL  C8     2.25800   0.72000  -0.78600
   21    1 UNL  C9    -1.09000  -1.92700  -1.31200
   22    1 UNL  C10   -2.00300   2.53200   0.16500
   23    1 UNL  C11    2.58900  -0.19000  -1.96700
   24    1 UNL  H     -3.62200  -1.27300  -0.62700
   25    1 UNL  H1    -2.81500   0.53000   1.69200
   26    1 UNL  H2    -3.22900   1.43600  -1.21500
   27    1 UNL  H3     1.05900  -1.59900  -0.21100
   28    1 UNL  H4     1.52600  -1.75300   2.14100
   29    1 UNL  H5     3.69100  -0.40300   2.19600
   30    1 UNL  H6     4.31000   0.67500  -0.05100
   31    1 UNL  H7     2.24400   1.75000  -1.16400
   32    1 UNL  H8    -1.13100  -2.93200  -0.88000
   33    1 UNL  H9    -0.10000  -1.76900  -1.74000
   34    1 UNL  H10   -1.24500   2.36100   0.93700
   35    1 UNL  H11   -2.79900   3.15400   0.58400
   36    1 UNL  H12    1.82100  -0.11300  -2.74400
   37    1 UNL  H13    2.65300  -1.24500  -1.68900
   38    1 UNL  H14   -3.98000  -1.94800   1.53200
   39    1 UNL  H15   -4.73600   1.56600   0.97500
   40    1 UNL  H16    0.27900   0.06700   2.74300
   41    1 UNL  H17    4.54900  -1.57700   0.43300
   42    1 UNL  H18    3.34300   2.60100   0.58700
   43    1 UNL  H19   -1.69600  -2.55100  -3.04900
   44    1 UNL  H20   -0.67900   2.68100  -1.25400
   45    1 UNL  H21    3.74900   1.12300  -2.81300
Energy ihbfrq 0 inbfrq -1
Open write card unit 14 name tmp.out
Write energy card unit 14
* UNL energy before the optimization
* 
Minimise Abnr Nstep 5000 Tolgrd 0.00001
Write energy card unit 14
* UNL energy after optimization
* 
Write coor card unit 14
* UNL energy after optimization
* 
