* UNL main file generated by charmmgen
* author: Victor Bazterra 2004 CHPC
* 

Read rtf card name cytosine_CHARMM.rtf

Read param card name cytosine_CHARMM.prm

Read sequence card
* Reading the coordinates of residue
* 
    1
UNL
Generate UNL setup
Read coor card free
* Residues coordinate
* 
   13
    1    1 UNL  O      2.21300   1.11900   0.00000
    2    1 UNL  N     -0.05900   0.98200   0.00000
    3    1 UNL  N1    -2.44200   0.92100   0.00000
    4    1 UNL  N2     1.29400  -0.97400   0.00000
    5    1 UNL  C     -1.24100   0.26800  -0.00000
    6    1 UNL  C1    -1.16400  -1.07300  -0.00000
    7    1 UNL  C2     1.20900   0.40600  -0.00000
    8    1 UNL  C3     0.19100  -1.64800   0.00000
    9    1 UNL  H     -0.13300   1.99500   0.00000
   10    1 UNL  H1    -2.02200  -1.73200  -0.00000
   11    1 UNL  H2     0.23500  -2.74900   0.00100
   12    1 UNL  H3    -3.30900   0.39800   0.00000
   13    1 UNL  H4    -2.45300   1.93300   0.00100
Energy ihbfrq 0 inbfrq -1
Open write card unit 14 name tmp.out
Write energy card unit 14
* UNL energy before the optimization
* 
Minimise Abnr Nstep 5000 Tolgrd 0.00001
Write energy card unit 14
* UNL energy after optimization
* 
Write coor card unit 14
* UNL energy after optimization
* 
