* UNL main file generated by charmmgen
* author: Victor Bazterra 2004 CHPC
* 

Read rtf card name 7-dehydrocholesterol_CHARMM.rtf

Read param card name 7-dehydrocholesterol_CHARMM.prm

Read sequence card
* Reading the coordinates of residue
* 
    1
UNL
Generate UNL setup
Read coor card free
* Residues coordinate
* 
   72
    1    1 UNL  O      7.58900  -1.29200  -0.63100
    2    1 UNL  C     -0.80200   0.71200   0.63000
    3    1 UNL  C1    -0.12700   0.73200  -0.75600
    4    1 UNL  C2    -2.28800   0.76100   0.19900
    5    1 UNL  C3     1.94800  -0.44200   0.19000
    6    1 UNL  C4    -0.39500  -0.59900   1.32300
    7    1 UNL  C5    -0.86300   1.85600  -1.49100
    8    1 UNL  C6     1.37600   0.68200  -0.68100
    9    1 UNL  C7    -2.30500   1.78000  -0.96200
   10    1 UNL  C8     3.51800  -0.33200   0.45600
   11    1 UNL  C9     1.12900  -0.68600   1.49400
   12    1 UNL  C10   -3.29900   1.08700   1.28900
   13    1 UNL  C11   -0.42500   1.93000   1.50900
   14    1 UNL  C12    4.24500   0.39700  -0.68200
   15    1 UNL  C13    4.07100  -1.78100   0.60100
   16    1 UNL  C14    2.17600   1.44900  -1.43600
   17    1 UNL  C15    3.82900   0.46800   1.74600
   18    1 UNL  C16   -4.75400   1.08800   0.77500
   19    1 UNL  C17    3.59300   1.21800  -1.52100
   20    1 UNL  C18    5.74100   0.22200  -0.79400
   21    1 UNL  C19    5.59500  -1.87600   0.58800
   22    1 UNL  C20   -3.17100   0.08200   2.44100
   23    1 UNL  C21    6.16700  -1.23800  -0.67500
   24    1 UNL  C22   -5.23700  -0.21300   0.12100
   25    1 UNL  C23   -6.66200  -0.12500  -0.43500
   26    1 UNL  C24   -7.17300  -1.45300  -1.02700
   27    1 UNL  C25   -7.13600  -2.59900  -0.01600
   28    1 UNL  C26   -6.33900  -1.82500  -2.25600
   29    1 UNL  H     -0.40500  -0.19600  -1.28600
   30    1 UNL  H1    -2.52600  -0.22400  -0.22800
   31    1 UNL  H2     1.78400  -1.34200  -0.42500
   32    1 UNL  H3    -0.73600  -1.46400   0.73900
   33    1 UNL  H4    -0.81600  -0.71100   2.32100
   34    1 UNL  H5    -0.82900   1.72300  -2.57800
   35    1 UNL  H6    -0.43400   2.84000  -1.26500
   36    1 UNL  H7    -2.62900   2.77500  -0.63700
   37    1 UNL  H8    -2.99200   1.45300  -1.75100
   38    1 UNL  H9     1.40500   0.03600   2.26800
   39    1 UNL  H10    1.38100  -1.67500   1.89700
   40    1 UNL  H11   -3.11300   2.08900   1.69500
   41    1 UNL  H12    0.65800   2.07300   1.57600
   42    1 UNL  H13   -0.83600   2.86700   1.11800
   43    1 UNL  H14   -0.79300   1.81900   2.53300
   44    1 UNL  H15    3.69600  -2.40200  -0.22300
   45    1 UNL  H16    3.69700  -2.23800   1.52500
   46    1 UNL  H17    1.77500   2.20800  -2.09900
   47    1 UNL  H18    4.89800   0.67600   1.86300
   48    1 UNL  H19    3.31300   1.43500   1.74800
   49    1 UNL  H20    3.53100  -0.08200   2.64600
   50    1 UNL  H21   -5.42600   1.33500   1.60700
   51    1 UNL  H22   -4.87200   1.90500   0.05200
   52    1 UNL  H23    4.12300   1.75100  -2.30400
   53    1 UNL  H24    6.12100   0.62400  -1.74200
   54    1 UNL  H25    6.23600   0.81500  -0.01500
   55    1 UNL  H26    6.02300  -1.40500   1.48100
   56    1 UNL  H27    5.90000  -2.92900   0.63900
   57    1 UNL  H28   -3.06900  -0.95000   2.09000
   58    1 UNL  H29   -4.06700   0.11300   3.07400
   59    1 UNL  H30   -2.35000   0.33700   3.11300
   60    1 UNL  H31    5.83800  -1.79400  -1.56100
   61    1 UNL  H32   -4.56400  -0.47500  -0.69900
   62    1 UNL  H33   -5.17500  -1.01300   0.86500
   63    1 UNL  H34   -6.71000   0.66200  -1.19800
   64    1 UNL  H35   -7.34000   0.18200   0.37200
   65    1 UNL  H36    7.84400  -2.22800  -0.56000
   66    1 UNL  H37   -8.21100  -1.30000  -1.34500
   67    1 UNL  H38   -6.11600  -2.91100   0.22700
   68    1 UNL  H39   -7.65300  -3.47600  -0.42200
   69    1 UNL  H40   -7.64300  -2.31600   0.91200
   70    1 UNL  H41   -5.31500  -2.11200  -1.99700
   71    1 UNL  H42   -6.79200  -2.67900  -2.77200
   72    1 UNL  H43   -6.29600  -0.99600  -2.97000
Energy ihbfrq 0 inbfrq -1
Open write card unit 14 name tmp.out
Write energy card unit 14
* UNL energy before the optimization
* 
Minimise Abnr Nstep 5000 Tolgrd 0.00001
Write energy card unit 14
* UNL energy after optimization
* 
Write coor card unit 14
* UNL energy after optimization
* 
