* UNL main file generated by charmmgen
* author: Victor Bazterra 2004 CHPC
* 

Read rtf card name guanine_CHARMM.rtf

Read param card name guanine_CHARMM.prm

Read sequence card
* Reading the coordinates of residue
* 
    1
UNL
Generate UNL setup
Read coor card free
* Residues coordinate
* 
   16
    1    1 UNL  O      0.19200   2.66600  -0.00000
    2    1 UNL  N     -2.07100   0.65900   0.00100
    3    1 UNL  N1     1.57400   0.80300   0.00000
    4    1 UNL  N2     0.75700  -1.45400  -0.00000
    5    1 UNL  N3    -1.71900  -1.54300  -0.00100
    6    1 UNL  N4     3.05500  -1.01000   0.00100
    7    1 UNL  C     -0.71800   0.48800  -0.00000
    8    1 UNL  C1    -0.52400  -0.87300  -0.00000
    9    1 UNL  C2     0.33800   1.44900  -0.00000
   10    1 UNL  C3     1.74800  -0.59200   0.00000
   11    1 UNL  C4    -2.63100  -0.59300   0.00100
   12    1 UNL  H     -2.57100   1.53900   0.00100
   13    1 UNL  H1     2.40800   1.38300   0.00000
   14    1 UNL  H2    -3.70100  -0.73900   0.00100
   15    1 UNL  H3     3.29100  -1.99600   0.00100
   16    1 UNL  H4     3.82200  -0.34700   0.00100
Energy ihbfrq 0 inbfrq -1
Open write card unit 14 name tmp.out
Write energy card unit 14
* UNL energy before the optimization
* 
Minimise Abnr Nstep 5000 Tolgrd 0.00001
Write energy card unit 14
* UNL energy after optimization
* 
Write coor card unit 14
* UNL energy after optimization
* 
