* UNL main file generated by charmmgen
* author: Victor Bazterra 2004 CHPC
* 

Read rtf card name diclofenac_CHARMM.rtf

Read param card name diclofenac_CHARMM.prm

Read sequence card
* Reading the coordinates of residue
* 
    1
UNL
Generate UNL setup
Read coor card free
* Residues coordinate
* 
   30
    1    1 UNL  Cl     1.95400   1.15000  -2.50800
    2    1 UNL  Cl1    1.13800  -1.63900   2.11400
    3    1 UNL  O     -3.26200  -2.92800  -1.06500
    4    1 UNL  O1    -2.79100  -1.91100   0.90900
    5    1 UNL  N      0.26800  -0.20500  -0.39900
    6    1 UNL  C     -2.06400   0.51400  -0.37700
    7    1 UNL  C1    -0.73100   0.71800  -0.01900
    8    1 UNL  C2    -2.47600  -0.68300  -1.17000
    9    1 UNL  C3     1.65700  -0.24800  -0.17900
   10    1 UNL  C4    -3.03800   1.43500   0.00800
   11    1 UNL  C5    -0.37300   1.84300   0.72300
   12    1 UNL  C6    -2.68000   2.56000   0.75100
   13    1 UNL  C7    -1.34700   2.76400   1.10800
   14    1 UNL  C8     2.53500   0.34800  -1.09200
   15    1 UNL  C9     2.17400  -0.88600   0.95300
   16    1 UNL  C10   -2.84800  -1.87500  -0.31200
   17    1 UNL  C11    3.91200   0.30600  -0.87400
   18    1 UNL  C12    3.55100  -0.92800   1.17100
   19    1 UNL  C13    4.42000  -0.33200   0.25800
   20    1 UNL  H     -1.70900  -0.97900  -1.89300
   21    1 UNL  H1    -3.36100  -0.42700  -1.76800
   22    1 UNL  H2    -0.08600  -1.11500  -0.67800
   23    1 UNL  H3    -4.08100   1.28800  -0.26000
   24    1 UNL  H4     0.65700   2.02800   1.01700
   25    1 UNL  H5    -3.43800   3.27700   1.05100
   26    1 UNL  H6    -1.06800   3.64000   1.68700
   27    1 UNL  H7     4.60400   0.76500  -1.57600
   28    1 UNL  H8     3.96300  -1.42100   2.04800
   29    1 UNL  H9     5.49200  -0.36500   0.42700
   30    1 UNL  H10   -3.50200  -3.70100  -0.51000
Energy ihbfrq 0 inbfrq -1
Open write card unit 14 name tmp.out
Write energy card unit 14
* UNL energy before the optimization
* 
Minimise Abnr Nstep 5000 Tolgrd 0.00001
Write energy card unit 14
* UNL energy after optimization
* 
Write coor card unit 14
* UNL energy after optimization
* 
