* UNL main file generated by charmmgen
* author: Victor Bazterra 2004 CHPC
* 

Read rtf card name metformin_CHARMM.rtf

Read param card name metformin_CHARMM.prm

Read sequence card
* Reading the coordinates of residue
* 
    1
UNL
Generate UNL setup
Read coor card free
* Residues coordinate
* 
   20
    1    1 UNL  N     -1.51600  -0.36000  -0.07900
    2    1 UNL  N1     0.71700   0.21500  -0.81900
    3    1 UNL  N2    -0.66000   1.87400  -0.16200
    4    1 UNL  N3     2.90100  -0.44800  -0.33600
    5    1 UNL  N4     1.52000  -0.03000   1.43500
    6    1 UNL  C     -1.29800  -1.78400  -0.30800
    7    1 UNL  C1    -2.78000   0.00500   0.55100
    8    1 UNL  C2    -0.52600   0.59300  -0.34500
    9    1 UNL  C3     1.64200  -0.06600   0.06300
   10    1 UNL  H     -0.68700  -1.95400  -1.20100
   11    1 UNL  H1    -2.24300  -2.31400  -0.46700
   12    1 UNL  H2    -0.79200  -2.22900   0.55400
   13    1 UNL  H3    -3.40600  -0.87000   0.75700
   14    1 UNL  H4    -3.34900   0.67400  -0.10200
   15    1 UNL  H5    -2.59800   0.50800   1.50700
   16    1 UNL  H6    -1.59500   2.09000   0.19200
   17    1 UNL  H7     3.62600  -0.66900   0.33700
   18    1 UNL  H8     3.13900  -0.51900  -1.31900
   19    1 UNL  H9     0.65200   0.23100   1.88900
   20    1 UNL  H10    2.30100  -0.26800   2.03700
Energy ihbfrq 0 inbfrq -1
Open write card unit 14 name tmp.out
Write energy card unit 14
* UNL energy before the optimization
* 
Minimise Abnr Nstep 5000 Tolgrd 0.00001
Write energy card unit 14
* UNL energy after optimization
* 
Write coor card unit 14
* UNL energy after optimization
* 
