* UNL main file generated by charmmgen
* author: Victor Bazterra 2004 CHPC
* 

Read rtf card name octylphenol_CHARMM.rtf

Read param card name octylphenol_CHARMM.prm

Read sequence card
* Reading the coordinates of residue
* 
    1
UNL
Generate UNL setup
Read coor card free
* Residues coordinate
* 
   37
    1    1 UNL  O     -2.69600  -2.22100  -0.04800
    2    1 UNL  C      2.51700   0.17200   0.20000
    3    1 UNL  C1     1.32400   0.01900  -0.74900
    4    1 UNL  C2     3.87200   0.01400  -0.49300
    5    1 UNL  C3    -0.06000   0.08400  -0.09600
    6    1 UNL  C4     5.02100   0.08700   0.51400
    7    1 UNL  C5    -1.21100  -0.01800  -1.10000
    8    1 UNL  C6     6.37800  -0.03800  -0.17900
    9    1 UNL  C7    -2.55100   0.14200  -0.42600
   10    1 UNL  C8     7.52300   0.06800   0.81500
   11    1 UNL  C9    -3.22200  -0.96900   0.06500
   12    1 UNL  C10   -3.09100   1.41400  -0.30900
   13    1 UNL  C11   -4.46000  -0.80400   0.68600
   14    1 UNL  C12   -4.32900   1.57900   0.31200
   15    1 UNL  C13   -5.01400   0.47000   0.80900
   16    1 UNL  H      2.46600   1.15500   0.68400
   17    1 UNL  H1     2.43000  -0.57700   0.99600
   18    1 UNL  H2     1.41300  -0.94000  -1.27500
   19    1 UNL  H3     1.38900   0.80000  -1.51800
   20    1 UNL  H4     3.90600  -0.94900  -1.01800
   21    1 UNL  H5     3.98800   0.79900  -1.25000
   22    1 UNL  H6    -0.14100  -0.71800   0.64800
   23    1 UNL  H7    -0.14000   1.02700   0.46000
   24    1 UNL  H8     4.91200  -0.71300   1.25700
   25    1 UNL  H9     4.97300   1.04000   1.05600
   26    1 UNL  H10   -1.10000   0.77400  -1.85400
   27    1 UNL  H11   -1.15600  -0.94900  -1.67600
   28    1 UNL  H12    6.44100  -1.00000  -0.70200
   29    1 UNL  H13    6.48400   0.74900  -0.93400
   30    1 UNL  H14    7.46400  -0.72400   1.56700
   31    1 UNL  H15    8.48300  -0.02500   0.29800
   32    1 UNL  H16    7.50700   1.03400   1.33000
   33    1 UNL  H17   -2.56700   2.28600  -0.69000
   34    1 UNL  H18   -4.99800  -1.66300   1.07600
   35    1 UNL  H19   -4.76000   2.57200   0.40900
   36    1 UNL  H20   -5.97700   0.59900   1.29300
   37    1 UNL  H21   -1.74300  -2.18200  -0.22400
Energy ihbfrq 0 inbfrq -1
Open write card unit 14 name tmp.out
Write energy card unit 14
* UNL energy before the optimization
* 
Minimise Abnr Nstep 5000 Tolgrd 0.00001
Write energy card unit 14
* UNL energy after optimization
* 
Write coor card unit 14
* UNL energy after optimization
* 
